Primitive Cell                          
   1.00000000000000     
    14.3072458714822481   -0.0170584966700204    0.0000000000000000
    -7.1682850854595159   12.3891683195979425    0.0000000000000000
     0.0000000000000000    0.0000000000000000   20.0000000000000107
   N    C    H    O 
    12    24    12     6
Direct
  0.0710931416256386  0.6199787870641842  0.5868165419700588
  0.2940256244480395  0.7332819655831813  0.5705993884339122
  0.2879167438768135  0.5641399047071900  0.5713415951236271
  0.4574042112193268  0.7277625502111817  0.5717754954523429
  0.7340296516608262  0.2858318389604690  0.5736909331238067
  0.7355435735046782  0.4531809011815966  0.5737127649489011
  0.5679040676908116  0.2869165401506493  0.5743358767647990
  0.6207920211139779  0.5588029397993139  0.5535944221739868
  0.4626231688135007  0.0658726525329385  0.5525796615982443
  0.9545670374497846  0.4007285980289907  0.5523844235562549
  0.4009876464413082  0.4545770167708625  0.5867706930300187
  0.5667669192571765  0.9511368210324136  0.5874304431002173
  0.1213630523278297  0.5661658396153229  0.5686199651589803
  0.0623729146175123  0.4565349606592477  0.5484684875688615
  0.1121479052076282  0.3985717314625035  0.5124620386627612
  0.1025165042829812  0.3072599663468409  0.6152173298783197
  0.2409408918051099  0.6250353468764587  0.5705242113502536
  0.4021063315591320  0.7805445799723145  0.5707608704412479
  0.3962609848388183  0.6196658778432962  0.5711916556444621
  0.6256359558305320  0.2365561386161232  0.5737290422550743
  0.7846247333181608  0.3940792516877636  0.5732988523418072
  0.6272140967858348  0.3952944847574287  0.5736891433885702
  0.4550753937607226  0.5591577504252214  0.5693352759131542
  0.5663573736980254  0.4542547993490942  0.5711103550305481
  0.5650268693551652  0.6105918722041537  0.5497333454517488
  0.6233279022357152  0.7188780846750120  0.5141879975565828
  0.7135423891564514  0.8006343557224511  0.6172473319340597
  0.4626114910190964  0.9000722309727323  0.5688929324069534
  0.5667456133752964  0.1165430326419497  0.5711708385559646
  0.4113558337347882  0.9581721615246011  0.5484202969294714
  0.3042688225294228  0.9076593973829503  0.5114129887062830
  0.2189997889851014  0.9163039545114344  0.6128205403995111
  0.9046972898868759  0.4549318663933590  0.5706008626723289
  0.4550665144490083  0.4012016128951785  0.5854161373338513
  0.6197733286987770  0.0587830794380793  0.5863628219986907
  0.9633975670464707  0.5659079852720410  0.5856509539458585
  0.0205883161450586  0.2886876624733503  0.6289083709711605
  0.1640984837475870  0.3810896993355755  0.6401512708952026
  0.1139955605679077  0.2396590537387198  0.6289061166578804
  0.1389166733026741  0.9034045618971192  0.6254072006800158
  0.2813367981575823  0.9985159560884185  0.6269992198851853
  0.7811242003415870  0.8799008470057004  0.6311162344307917
  0.7317090989982162  0.7372156081980776  0.6312954878934320
  0.6394201073318371  0.7883218639409293  0.6417054127465391
  0.2313981353424239  0.8552978803311646  0.6382087891913173
  0.4106904274075305  0.3149556284390158  0.5966115835803194
  0.7056943553202828  0.1012162000236003  0.5985662539064478
  0.9216836554908383  0.6100117386232995  0.5976740225116188
  0.1369077946775832  0.4198742055986884  0.4539443347443139
  0.1179631964277377  0.3183017987766590  0.5436179748778684
  0.3026801230782894  0.8829284968014974  0.4530415596339594
  0.2169865636580894  0.9013313011324584  0.5412521151314635
  0.6024687778626543  0.7225524505026613  0.4556152681295771
  0.7034688765357515  0.8050591698245029  0.5455900818313495
 
  0.00000000E+00  0.00000000E+00  0.00000000E+00
  0.00000000E+00  0.00000000E+00  0.00000000E+00
  0.00000000E+00  0.00000000E+00  0.00000000E+00
  0.00000000E+00  0.00000000E+00  0.00000000E+00
  0.00000000E+00  0.00000000E+00  0.00000000E+00
  0.00000000E+00  0.00000000E+00  0.00000000E+00
  0.00000000E+00  0.00000000E+00  0.00000000E+00
  0.00000000E+00  0.00000000E+00  0.00000000E+00
  0.00000000E+00  0.00000000E+00  0.00000000E+00
  0.00000000E+00  0.00000000E+00  0.00000000E+00
  0.00000000E+00  0.00000000E+00  0.00000000E+00
  0.00000000E+00  0.00000000E+00  0.00000000E+00
  0.00000000E+00  0.00000000E+00  0.00000000E+00
  0.00000000E+00  0.00000000E+00  0.00000000E+00
  0.00000000E+00  0.00000000E+00  0.00000000E+00
  0.00000000E+00  0.00000000E+00  0.00000000E+00
  0.00000000E+00  0.00000000E+00  0.00000000E+00
  0.00000000E+00  0.00000000E+00  0.00000000E+00
  0.00000000E+00  0.00000000E+00  0.00000000E+00
  0.00000000E+00  0.00000000E+00  0.00000000E+00
  0.00000000E+00  0.00000000E+00  0.00000000E+00
  0.00000000E+00  0.00000000E+00  0.00000000E+00
  0.00000000E+00  0.00000000E+00  0.00000000E+00
  0.00000000E+00  0.00000000E+00  0.00000000E+00
  0.00000000E+00  0.00000000E+00  0.00000000E+00
  0.00000000E+00  0.00000000E+00  0.00000000E+00
  0.00000000E+00  0.00000000E+00  0.00000000E+00
  0.00000000E+00  0.00000000E+00  0.00000000E+00
  0.00000000E+00  0.00000000E+00  0.00000000E+00
  0.00000000E+00  0.00000000E+00  0.00000000E+00
  0.00000000E+00  0.00000000E+00  0.00000000E+00
  0.00000000E+00  0.00000000E+00  0.00000000E+00
  0.00000000E+00  0.00000000E+00  0.00000000E+00
  0.00000000E+00  0.00000000E+00  0.00000000E+00
  0.00000000E+00  0.00000000E+00  0.00000000E+00
  0.00000000E+00  0.00000000E+00  0.00000000E+00
  0.00000000E+00  0.00000000E+00  0.00000000E+00
  0.00000000E+00  0.00000000E+00  0.00000000E+00
  0.00000000E+00  0.00000000E+00  0.00000000E+00
  0.00000000E+00  0.00000000E+00  0.00000000E+00
  0.00000000E+00  0.00000000E+00  0.00000000E+00
  0.00000000E+00  0.00000000E+00  0.00000000E+00
  0.00000000E+00  0.00000000E+00  0.00000000E+00
  0.00000000E+00  0.00000000E+00  0.00000000E+00
  0.00000000E+00  0.00000000E+00  0.00000000E+00
  0.00000000E+00  0.00000000E+00  0.00000000E+00
  0.00000000E+00  0.00000000E+00  0.00000000E+00
  0.00000000E+00  0.00000000E+00  0.00000000E+00
  0.00000000E+00  0.00000000E+00  0.00000000E+00
  0.00000000E+00  0.00000000E+00  0.00000000E+00
  0.00000000E+00  0.00000000E+00  0.00000000E+00
  0.00000000E+00  0.00000000E+00  0.00000000E+00
  0.00000000E+00  0.00000000E+00  0.00000000E+00
  0.00000000E+00  0.00000000E+00  0.00000000E+00
