Primitive Cell                          
   1.00000000000000     
    14.5342043260156242    0.0000000000000000    0.0000000000000000
    -7.2671021630078121   12.5869901701232099    0.0000000000000000
     0.0000000000000000    0.0000000000000000   20.0000000000000000
   N    C    H 
     6    27    18
Direct
  0.6119001386239944  0.2238002772479959  0.4880803280949735
  0.6119001386239944  0.3880998613760056  0.4880803280949735
  0.7761997227520041  0.3880998613760056  0.4880803280949735
  0.0547348690701810  0.1094697381403691  0.4861166264213423
  0.0547348690701810  0.9452651309298190  0.4861166264213423
  0.8905302618596309  0.9452651309298190  0.4861166264213423
  0.5626850709507281  0.2813425354753676  0.4881324316998246
  0.4442346683498641  0.2221173341749321  0.4880086418442175
  0.3892348514675845  0.1946174257337958  0.4272744463922606
  0.3878671144370074  0.1939335572185072  0.5482033647831059
  0.7186574645246324  0.2813425354753676  0.4881324316998246
  0.7186574645246324  0.4373149290492719  0.4881324316998246
  0.7778826658250679  0.5557653316501359  0.4880086418442175
  0.7778826658250679  0.2221173341749321  0.4880086418442175
  0.9479898905235018  0.0520101094764982  0.4862503273424679
  0.1040202189530035  0.0520101094764982  0.4862503273424679
  0.9479898905235018  0.8959797810469965  0.4862503273424679
  0.8053825742662042  0.6107651485324155  0.4272744463922606
  0.8609298020621807  0.7218596041243543  0.4251230985474308
  0.8887698153756531  0.7775396307513134  0.4861623162195201
  0.8900767191263839  0.7801534382527677  0.3593674979402124
  0.8053825742662042  0.1946174257337958  0.4272744463922606
  0.8609298020621807  0.1390701979378193  0.4251230985474308
  0.8887698153756531  0.1112301846243469  0.4861623162195201
  0.8900767191263839  0.1099232808736161  0.3593674979402124
  0.2781403958756457  0.1390701979378193  0.4251230985474308
  0.2224603692486866  0.1112301846243469  0.4861623162195201
  0.2198465617472323  0.1099232808736161  0.3593674979402124
  0.8614440768761540  0.7228881537523080  0.5469831002006202
  0.8060664427814928  0.6121328855629926  0.5482033647831059
  0.8614440768761540  0.1385559231238460  0.5469831002006202
  0.8060664427814928  0.1939335572185072  0.5482033647831059
  0.2771118462476920  0.1385559231238460  0.5469831002006202
  0.4337255449925976  0.2168627724962917  0.3804052346941447
  0.4301483074461885  0.2150741537230942  0.5958018315569618
  0.7831372275037012  0.5662744550074024  0.3804052346941447
  0.7831372275037012  0.2168627724962917  0.3804052346941447
  0.7849258462769058  0.5698516925538115  0.5958018315569618
  0.7849258462769058  0.2150741537230942  0.5958018315569618
  0.8622215170846417  0.7244430341692762  0.3171804539785654
  0.9767208756409502  0.8315449633020719  0.3547239215342302
  0.8548240876611217  0.8315449633020719  0.3547239215342302
  0.8622215170846417  0.1377784829153583  0.3171804539785654
  0.8548240876611217  0.0232791243590498  0.3547239215342302
  0.9767208756409502  0.1451759123388783  0.3547239215342302
  0.2755569658307238  0.1377784829153583  0.3171804539785654
  0.1684550366979281  0.1451759123388783  0.3547239215342302
  0.1684550366979281  0.0232791243590498  0.3547239215342302
  0.8836761239890762  0.7673522479781525  0.5938160409558790
  0.8836761239890762  0.1163238760109238  0.5938160409558790
  0.2326477520218475  0.1163238760109238  0.5938160409558790
 
  0.00000000E+00  0.00000000E+00  0.00000000E+00
  0.00000000E+00  0.00000000E+00  0.00000000E+00
  0.00000000E+00  0.00000000E+00  0.00000000E+00
  0.00000000E+00  0.00000000E+00  0.00000000E+00
  0.00000000E+00  0.00000000E+00  0.00000000E+00
  0.00000000E+00  0.00000000E+00  0.00000000E+00
  0.00000000E+00  0.00000000E+00  0.00000000E+00
  0.00000000E+00  0.00000000E+00  0.00000000E+00
  0.00000000E+00  0.00000000E+00  0.00000000E+00
  0.00000000E+00  0.00000000E+00  0.00000000E+00
  0.00000000E+00  0.00000000E+00  0.00000000E+00
  0.00000000E+00  0.00000000E+00  0.00000000E+00
  0.00000000E+00  0.00000000E+00  0.00000000E+00
  0.00000000E+00  0.00000000E+00  0.00000000E+00
  0.00000000E+00  0.00000000E+00  0.00000000E+00
  0.00000000E+00  0.00000000E+00  0.00000000E+00
  0.00000000E+00  0.00000000E+00  0.00000000E+00
  0.00000000E+00  0.00000000E+00  0.00000000E+00
  0.00000000E+00  0.00000000E+00  0.00000000E+00
  0.00000000E+00  0.00000000E+00  0.00000000E+00
  0.00000000E+00  0.00000000E+00  0.00000000E+00
  0.00000000E+00  0.00000000E+00  0.00000000E+00
  0.00000000E+00  0.00000000E+00  0.00000000E+00
  0.00000000E+00  0.00000000E+00  0.00000000E+00
  0.00000000E+00  0.00000000E+00  0.00000000E+00
  0.00000000E+00  0.00000000E+00  0.00000000E+00
  0.00000000E+00  0.00000000E+00  0.00000000E+00
  0.00000000E+00  0.00000000E+00  0.00000000E+00
  0.00000000E+00  0.00000000E+00  0.00000000E+00
  0.00000000E+00  0.00000000E+00  0.00000000E+00
  0.00000000E+00  0.00000000E+00  0.00000000E+00
  0.00000000E+00  0.00000000E+00  0.00000000E+00
  0.00000000E+00  0.00000000E+00  0.00000000E+00
  0.00000000E+00  0.00000000E+00  0.00000000E+00
  0.00000000E+00  0.00000000E+00  0.00000000E+00
  0.00000000E+00  0.00000000E+00  0.00000000E+00
  0.00000000E+00  0.00000000E+00  0.00000000E+00
  0.00000000E+00  0.00000000E+00  0.00000000E+00
  0.00000000E+00  0.00000000E+00  0.00000000E+00
  0.00000000E+00  0.00000000E+00  0.00000000E+00
  0.00000000E+00  0.00000000E+00  0.00000000E+00
  0.00000000E+00  0.00000000E+00  0.00000000E+00
  0.00000000E+00  0.00000000E+00  0.00000000E+00
  0.00000000E+00  0.00000000E+00  0.00000000E+00
  0.00000000E+00  0.00000000E+00  0.00000000E+00
  0.00000000E+00  0.00000000E+00  0.00000000E+00
  0.00000000E+00  0.00000000E+00  0.00000000E+00
  0.00000000E+00  0.00000000E+00  0.00000000E+00
  0.00000000E+00  0.00000000E+00  0.00000000E+00
  0.00000000E+00  0.00000000E+00  0.00000000E+00
  0.00000000E+00  0.00000000E+00  0.00000000E+00
