Primitive Cell                          
   1.00000000000000     
    29.4404686235175177   -0.0129806137435291    0.0000000000000000
   -14.7305855237119214   25.3852978288037932    0.0000000000000000
     0.0000000000000000    0.0000000000000000   20.0000000000000000
   C    O    H    N 
    48    18    24    18
Direct
  0.6522457249243203  0.3729344632221654  0.4740500678771724
  0.6290878734023408  0.2869331643548492  0.4745705054808838
  0.7724954593578417  0.3652480858799976  0.4758418173012871
  0.6368836567941116  0.4153137261020987  0.4751308456074526
  0.3375187147882812  0.6270954380703131  0.5010427016772567
  0.3732308725700122  0.7155511139378490  0.5015144125212458
  0.2303217077661728  0.6559888384690140  0.4979466605437537
  0.3442976614770146  0.5790128787658446  0.4974619111966234
  0.1379394112197971  0.5853886970391713  0.5152628184704682
  0.0270933017044257  0.5383067393968375  0.5166315868028022
  0.0536776376720169  0.5226828980955887  0.5611290713091250
  0.1079423363671097  0.5447091234294774  0.5601696673945327
  0.9691699328893435  0.5087051034782917  0.5095932137012085
  0.8907481311560161  0.4241637672491123  0.4832152370481424
  0.9445746148673493  0.4549968538793792  0.4929097350567773
  0.4438051708610757  0.8631054308051205  0.5165443679945341
  0.5076021598044491  0.9743773549932655  0.5165626275222408
  0.4667447575010613  0.9477104643082370  0.5629980814500897
  0.4344125437650419  0.8932195269320076  0.5626439912211580
  0.5354327654355231  0.0323969072823402  0.5089027555208858
  0.5278996870627495  0.1103231942260194  0.4852470449663571
  0.5055195809508888  0.0564186856851236  0.4948572062401766
  0.4146463324363268  0.5573067796129365  0.5154750088629356
  0.4620932678957885  0.4939554493012110  0.5161226727050092
  0.4758710117592884  0.5346000262543669  0.5628652405470476
  0.4536535940487312  0.5667010466936802  0.5622543683232806
  0.4921933648520564  0.4662319991934254  0.5086047279689865
  0.5771645769330718  0.4739019204782622  0.4828340862871272
  0.5458605232971721  0.4962619106418273  0.4928089095741228
  0.7148688919150956  0.3499410985095608  0.4745199633270758
  0.5866738976100265  0.2290305755416355  0.4760832238884518
  0.2850443145782222  0.6627131407012001  0.5012829046151452
  0.4214220526765615  0.7705091639127772  0.4985262325544610
  0.1128947849521111  0.6036402252465791  0.4720004526213941
  0.0584167233496728  0.5794613469189827  0.4724388996024089
  0.9364932821180147  0.5307154152593156  0.5135820954750372
  0.8826025770317116  0.5012694769701156  0.5027138284289521
  0.8590504673729598  0.4473067287079786  0.4887255758764724
  0.4860531853995198  0.8882476932294310  0.4716437862554415
  0.5163241493626174  0.9429232656839659  0.4714171702674292
  0.5902089235611356  0.0657058439741505  0.5099558513407842
  0.6140019114815445  0.1197078358544132  0.4992318557120683
  0.5828739393267881  0.1426946338877570  0.4881913916487051
  0.3980118699773598  0.5153012384297710  0.4701503039523089
  0.4224033161673475  0.4852189752724172  0.4702758645497838
  0.4706877226715420  0.4113788842824349  0.5111935129213379
  0.5006712521284413  0.3875980436065163  0.5002902582568751
  0.5545503810284416  0.4188515189258482  0.4873211371367390
  0.5397366643559209  0.2150863895897572  0.4736957716991483
  0.6699399218894797  0.4624551515227253  0.4727812937092324
  0.7860117118272285  0.3318977353900010  0.4729542194761152
  0.4646782537205425  0.7777333522056651  0.4817370439058806
  0.3082802112204703  0.5355436493328298  0.4805042866593254
  0.2232931931146354  0.6923641459000649  0.4818570828312829
  0.0439439555588095  0.4561707668649788  0.6333476536595057
  0.9846487064398914  0.4808397390225423  0.6367117082200124
  0.4123792751069004  0.9571473222068292  0.6394180185009759
  0.4962633051621737  0.0175649600419447  0.6381245903225263
  0.5371864578620276  0.5882703387983312  0.6425798832793888
  0.5170891504303725  0.5053698877633224  0.6365408568317648
  0.9341612147021507  0.6087822126933204  0.5120049587819722
  0.9972447565488807  0.6070943198862366  0.5690306814196902
  0.6703825023328136  0.0685685794179633  0.5011215395143367
  0.6085130907601339  0.0059282441177118  0.5626012637408664
  0.3935263800368745  0.3301694022330750  0.5070124307165713
  0.3931952750738006  0.3940007812223953  0.5643774753870048
  0.1261809748545559  0.5304842916924386  0.5955074144314239
  0.8728683024855783  0.3824650483749892  0.4717112034339479
  0.9688900151949724  0.4368559377445109  0.4875121645294058
  0.2062586896378420  0.5809671170297932  0.5257580445585432
  0.4028915545830429  0.8749154758619184  0.5993183842198988
  0.5035383898949277  0.1277720624567849  0.4758217494875367
  0.4629179800097418  0.0315639335029019  0.4915716095957947
  0.3708991512630462  0.7944471499818064  0.5277415690308658
  0.4664421944478576  0.5980237179503263  0.5992636138339336
  0.6188023762950294  0.4983335177114938  0.4719752126257788
  0.5635357944386783  0.5388996847718346  0.4884430208301040
  0.4187734113345840  0.6301225409526054  0.5266543206732734
  0.8594911495909514  0.5207870302691475  0.5066963225705337
  0.1361114855338741  0.6358294268118954  0.4376722803950059
  0.0391900058739623  0.5922007769751403  0.4364838725081341
  0.7845428354613446  0.4389725298329097  0.4828029269718073
  0.6567439090182319  0.1433816869820461  0.5009708111194158
  0.4942170610374887  0.8649711297587004  0.4365271708627887
  0.5473476234243151  0.9621970038221406  0.4341802017852530
  0.6486224543024903  0.2178796620788006  0.4820294422058566
  0.4816267947353765  0.3447962759915910  0.5034089943050262
  0.3669760694877056  0.5072384310588092  0.4344793812467955
  0.4110824387358889  0.4543454816251469  0.4328352272176517
  0.5636151031995027  0.3529972724392749  0.4811257684567067
  0.7034921812840693  0.3888879266280227  0.4741803768400104
  0.6793926722660188  0.2985223363336473  0.4747394205683690
  0.6133431267958898  0.3224129797516255  0.4741739079160467
  0.2884995865851678  0.6188154373076813  0.5013932541302069
  0.3259436636107580  0.7119397239158616  0.5017573861489879
  0.3813178340861754  0.6745957826291686  0.5014720667753778
  0.0249948878042403  0.4833036034750435  0.6140961553258464
  0.1924375825467664  0.6057065928083247  0.5142133137448681
  0.4577684631903409  0.9765889064713775  0.6173270742634358
  0.4093955960796407  0.8083582626499179  0.5158814897273558
  0.5131587497058803  0.5434878659161981  0.6177939593246649
  0.3942671704822374  0.5914851718809828  0.5145925444071651
  0.9577603251013116  0.5865241578478972  0.5328755033535373
  0.8044751871911515  0.4187387978814030  0.4813999730581315
  0.6256363883492284  0.0449824477977003  0.5256515669484187
  0.6084068273622023  0.1973993575202684  0.4811313412312970
  0.4148298012256006  0.3759287675003620  0.5287508931713774
  0.5834931490807662  0.3933210251051378  0.4799441556703599
 
  0.00000000E+00  0.00000000E+00  0.00000000E+00
  0.00000000E+00  0.00000000E+00  0.00000000E+00
  0.00000000E+00  0.00000000E+00  0.00000000E+00
  0.00000000E+00  0.00000000E+00  0.00000000E+00
  0.00000000E+00  0.00000000E+00  0.00000000E+00
  0.00000000E+00  0.00000000E+00  0.00000000E+00
  0.00000000E+00  0.00000000E+00  0.00000000E+00
  0.00000000E+00  0.00000000E+00  0.00000000E+00
  0.00000000E+00  0.00000000E+00  0.00000000E+00
  0.00000000E+00  0.00000000E+00  0.00000000E+00
  0.00000000E+00  0.00000000E+00  0.00000000E+00
  0.00000000E+00  0.00000000E+00  0.00000000E+00
  0.00000000E+00  0.00000000E+00  0.00000000E+00
  0.00000000E+00  0.00000000E+00  0.00000000E+00
  0.00000000E+00  0.00000000E+00  0.00000000E+00
  0.00000000E+00  0.00000000E+00  0.00000000E+00
  0.00000000E+00  0.00000000E+00  0.00000000E+00
  0.00000000E+00  0.00000000E+00  0.00000000E+00
  0.00000000E+00  0.00000000E+00  0.00000000E+00
  0.00000000E+00  0.00000000E+00  0.00000000E+00
  0.00000000E+00  0.00000000E+00  0.00000000E+00
  0.00000000E+00  0.00000000E+00  0.00000000E+00
  0.00000000E+00  0.00000000E+00  0.00000000E+00
  0.00000000E+00  0.00000000E+00  0.00000000E+00
  0.00000000E+00  0.00000000E+00  0.00000000E+00
  0.00000000E+00  0.00000000E+00  0.00000000E+00
  0.00000000E+00  0.00000000E+00  0.00000000E+00
  0.00000000E+00  0.00000000E+00  0.00000000E+00
  0.00000000E+00  0.00000000E+00  0.00000000E+00
  0.00000000E+00  0.00000000E+00  0.00000000E+00
  0.00000000E+00  0.00000000E+00  0.00000000E+00
  0.00000000E+00  0.00000000E+00  0.00000000E+00
  0.00000000E+00  0.00000000E+00  0.00000000E+00
  0.00000000E+00  0.00000000E+00  0.00000000E+00
  0.00000000E+00  0.00000000E+00  0.00000000E+00
  0.00000000E+00  0.00000000E+00  0.00000000E+00
  0.00000000E+00  0.00000000E+00  0.00000000E+00
  0.00000000E+00  0.00000000E+00  0.00000000E+00
  0.00000000E+00  0.00000000E+00  0.00000000E+00
  0.00000000E+00  0.00000000E+00  0.00000000E+00
  0.00000000E+00  0.00000000E+00  0.00000000E+00
  0.00000000E+00  0.00000000E+00  0.00000000E+00
  0.00000000E+00  0.00000000E+00  0.00000000E+00
  0.00000000E+00  0.00000000E+00  0.00000000E+00
  0.00000000E+00  0.00000000E+00  0.00000000E+00
  0.00000000E+00  0.00000000E+00  0.00000000E+00
  0.00000000E+00  0.00000000E+00  0.00000000E+00
  0.00000000E+00  0.00000000E+00  0.00000000E+00
  0.00000000E+00  0.00000000E+00  0.00000000E+00
  0.00000000E+00  0.00000000E+00  0.00000000E+00
  0.00000000E+00  0.00000000E+00  0.00000000E+00
  0.00000000E+00  0.00000000E+00  0.00000000E+00
  0.00000000E+00  0.00000000E+00  0.00000000E+00
  0.00000000E+00  0.00000000E+00  0.00000000E+00
  0.00000000E+00  0.00000000E+00  0.00000000E+00
  0.00000000E+00  0.00000000E+00  0.00000000E+00
  0.00000000E+00  0.00000000E+00  0.00000000E+00
  0.00000000E+00  0.00000000E+00  0.00000000E+00
  0.00000000E+00  0.00000000E+00  0.00000000E+00
  0.00000000E+00  0.00000000E+00  0.00000000E+00
  0.00000000E+00  0.00000000E+00  0.00000000E+00
  0.00000000E+00  0.00000000E+00  0.00000000E+00
  0.00000000E+00  0.00000000E+00  0.00000000E+00
  0.00000000E+00  0.00000000E+00  0.00000000E+00
  0.00000000E+00  0.00000000E+00  0.00000000E+00
  0.00000000E+00  0.00000000E+00  0.00000000E+00
  0.00000000E+00  0.00000000E+00  0.00000000E+00
  0.00000000E+00  0.00000000E+00  0.00000000E+00
  0.00000000E+00  0.00000000E+00  0.00000000E+00
  0.00000000E+00  0.00000000E+00  0.00000000E+00
  0.00000000E+00  0.00000000E+00  0.00000000E+00
  0.00000000E+00  0.00000000E+00  0.00000000E+00
  0.00000000E+00  0.00000000E+00  0.00000000E+00
  0.00000000E+00  0.00000000E+00  0.00000000E+00
  0.00000000E+00  0.00000000E+00  0.00000000E+00
  0.00000000E+00  0.00000000E+00  0.00000000E+00
  0.00000000E+00  0.00000000E+00  0.00000000E+00
  0.00000000E+00  0.00000000E+00  0.00000000E+00
  0.00000000E+00  0.00000000E+00  0.00000000E+00
  0.00000000E+00  0.00000000E+00  0.00000000E+00
  0.00000000E+00  0.00000000E+00  0.00000000E+00
  0.00000000E+00  0.00000000E+00  0.00000000E+00
  0.00000000E+00  0.00000000E+00  0.00000000E+00
  0.00000000E+00  0.00000000E+00  0.00000000E+00
  0.00000000E+00  0.00000000E+00  0.00000000E+00
  0.00000000E+00  0.00000000E+00  0.00000000E+00
  0.00000000E+00  0.00000000E+00  0.00000000E+00
  0.00000000E+00  0.00000000E+00  0.00000000E+00
  0.00000000E+00  0.00000000E+00  0.00000000E+00
  0.00000000E+00  0.00000000E+00  0.00000000E+00
  0.00000000E+00  0.00000000E+00  0.00000000E+00
  0.00000000E+00  0.00000000E+00  0.00000000E+00
  0.00000000E+00  0.00000000E+00  0.00000000E+00
  0.00000000E+00  0.00000000E+00  0.00000000E+00
  0.00000000E+00  0.00000000E+00  0.00000000E+00
  0.00000000E+00  0.00000000E+00  0.00000000E+00
  0.00000000E+00  0.00000000E+00  0.00000000E+00
  0.00000000E+00  0.00000000E+00  0.00000000E+00
  0.00000000E+00  0.00000000E+00  0.00000000E+00
  0.00000000E+00  0.00000000E+00  0.00000000E+00
  0.00000000E+00  0.00000000E+00  0.00000000E+00
  0.00000000E+00  0.00000000E+00  0.00000000E+00
  0.00000000E+00  0.00000000E+00  0.00000000E+00
  0.00000000E+00  0.00000000E+00  0.00000000E+00
  0.00000000E+00  0.00000000E+00  0.00000000E+00
  0.00000000E+00  0.00000000E+00  0.00000000E+00
  0.00000000E+00  0.00000000E+00  0.00000000E+00
  0.00000000E+00  0.00000000E+00  0.00000000E+00
