Primitive Cell                          
   1.00000000000000     
    29.2887767030823127    0.0016046772109787    0.0000000000000000
   -14.6429768559796756   25.3663235922069354    0.0000000000000000
     0.0000000000000000    0.0000000000000000   20.0000000000000000
   N    C    H    O 
    18    81    36     9
Direct
  0.5466675658334452  0.0447064086299847  0.4397909099153736
  0.5474602510736943  0.2669881298398948  0.5950036305380735
  0.7238634157446242  0.2323023574998402  0.4875532967811012
  0.7580313851642941  0.3010570881503796  0.5939519373927666
  0.5130280075377911  0.3010149379393425  0.4883133249509015
  0.4413595858479198  0.9852536465890651  0.4710396533314949
  0.5491506555759642  0.5839927022962144  0.4714573786169183
  0.0399088821796880  0.4764012812657725  0.4730153189269259
  0.7241455357016235  0.4772095902072664  0.5940602719944863
  0.4700325402911716  0.7750491940938602  0.5955610210545785
  0.3105403846427919  0.5562742235920410  0.5949958341447754
  0.2510210047358470  0.7151744969042397  0.5951352458375183
  0.5027613719378792  0.4787583810373590  0.4391669549784041
  0.9807749889429331  0.5221541030879280  0.4388956284788534
  0.7926723027324840  0.5120712532139251  0.4874994823281611
  0.5111949875612751  0.7487635048524623  0.4884560581354265
  0.2429215925213271  0.5148850535600218  0.4881746961354381
  0.2772332277462866  0.7826840155752848  0.4881268963017007
  0.5511723059932976  0.1238759751326342  0.4842462213783563
  0.4650871863045012  0.0372401875798190  0.4691166401914941
  0.5208214235135458  0.0682431583089524  0.4627372629632802
  0.5535438280634679  0.2028854774136946  0.5269047978140549
  0.6067122582254996  0.2230737495427633  0.5433519331046952
  0.6334650372868538  0.1961820810574508  0.5264201440619232
  0.6056030753581041  0.1466024664062715  0.4960275023644982
  0.5258137707350770  0.1530405817708385  0.4975567287330236
  0.5329713567240688  0.2392649079027720  0.5384420779300783
  0.6909380661871580  0.2257252755237573  0.5382325455911356
  0.7124808232751363  0.2554191019488883  0.5976732541456258
  0.6863161809741456  0.2375838301118307  0.6642833652444295
  0.5069079697334899  0.2528775082145671  0.4889864808047903
  0.5473701642315305  0.3125559653615824  0.5985262199848194
  0.7720056116632392  0.2743374964858347  0.4880407304758947
  0.6538877012789825  0.4712224098753595  0.5262926359809867
  0.6208611447808536  0.4181879117668146  0.5433302197700485
  0.5671443073394613  0.3914724269090826  0.5268422963556390
  0.5453512060619445  0.4192761997672179  0.4964097045225344
  0.5771264563172238  0.4736142418790905  0.4840270960656667
  0.6317292534382020  0.4988598216786073  0.4967896061731878
  0.8220717348166673  0.3710868160847056  0.5257744390262644
  0.8019243239912299  0.4040841423508255  0.5423319610285660
  0.8289501080219566  0.4577901230193220  0.5257979055717641
  0.8786159598301566  0.4795583978203481  0.4956075213951792
  0.9012948751128178  0.4478271451808951  0.4837404788739406
  0.8719992069713314  0.3932480799251010  0.4966675682786317
  0.4551984345856610  0.8338004578051468  0.5272736521784083
  0.4013024199368971  0.8070893421232910  0.5424386979830658
  0.3688264063640148  0.8277624184456087  0.5250981245298050
  0.3911357991770004  0.8769449783080674  0.4938170191010940
  0.4459114904551598  0.9061132179451619  0.4824495981265571
  0.4776104377100907  0.8839104577464951  0.4984073275675200
  0.3840949389475483  0.5709892227900681  0.5269051133544806
  0.4114191782052572  0.6248279549367268  0.5423885933338326
  0.4646487425424723  0.6571706227357552  0.5253398092726940
  0.4914531590438358  0.6347585040334138  0.4940951783668694
  0.4656741930388151  0.5800057245276520  0.4824393545721009
  0.4117050521864485  0.5484634613960608  0.4980963814311181
  0.1918408455964382  0.6416639659154271  0.5271782229110755
  0.2184765885988398  0.6144164048070451  0.5424450737675315
  0.1976942394168404  0.5612245797839535  0.5253310887983034
  0.1484127616488990  0.5343371016331702  0.4942970371408535
  0.1192974115269863  0.5600055484039288  0.4828802080186847
  0.1416483489325344  0.6139798328706334  0.4984872980947657
  0.5770609996622227  0.5599015712116895  0.4695151446113925
  0.9879239502382404  0.4482961019047451  0.4708233261968999
  0.5392692209222929  0.3340220028221808  0.5389732648087744
  0.5555041099537803  0.3386200824824570  0.6651773219589927
  0.7994340791182992  0.4857085610127214  0.5379756490173904
  0.7108667782679277  0.4917874965913711  0.5375941932203148
  0.7698391279514354  0.4773989415416651  0.5975489199184949
  0.7879219169643008  0.4689984156505176  0.6639567726804145
  0.7856751493696947  0.3141435878853116  0.5373220870669542
  0.4868358781783826  0.7140304679259017  0.5382226261120167
  0.4823156848222965  0.8033655937747355  0.5395259864825306
  0.4755380317627740  0.7324130472136119  0.5982582478842033
  0.4699679530066305  0.7061216586354888  0.6642625032644176
  0.2325363486475496  0.5392012914882613  0.5379809659208306
  0.3265311623120652  0.5439560666019716  0.5389783158470962
  0.2623886082046383  0.5506985613977307  0.5978678594048077
  0.2420039406845831  0.5565579432103647  0.6639529460134952
  0.3119822324887025  0.7930079235515777  0.5378608424090814
  0.2225165669719829  0.6992456043323543  0.5392383131073615
  0.2937271725156947  0.7632348113553462  0.5978404323854321
  0.3204492995143937  0.7836013276386709  0.6637189931897538
  0.4697089246152615  0.9612170198670071  0.4599358743591395
  0.5214195286267724  0.9921259556006419  0.4333708254494013
  0.5486338665373864  0.9687610729451848  0.3951723810105676
  0.4968035372353299  0.5560061154203169  0.4599243519132798
  0.5520370894487954  0.5041827564007022  0.4625519712495034
  0.4757940663118774  0.5044112538100904  0.4328959291340695
  0.4253675204977867  0.4778021679762787  0.3943394037224834
  0.0641122527860247  0.5286399094549381  0.4606241681516536
  0.9570634879901547  0.4730409155657043  0.4627787647310910
  0.0334124050043130  0.5492543621859269  0.4328444975373600
  0.0570898828024298  0.5992846608195777  0.3934447559916805
  0.7505604919915996  0.5180527420340866  0.4882263183039086
  0.5120589326230345  0.7945673909365922  0.4900865294523129
  0.2879393491618885  0.5141549958435618  0.4896342023991380
  0.2313668921994747  0.7378091501692481  0.4898274301836025
  0.6253226880503888  0.1246586406014458  0.4827233303012406
  0.4398728276884398  0.0546495663860185  0.4742111948879639
  0.4841274294776667  0.1366815891522606  0.4860496999064310
  0.6280923960453038  0.2618975544561408  0.5665833279403145
  0.6482321590518154  0.1994546829874793  0.6633595684854470
  0.4837015596484235  0.2260142537310159  0.4487310901212354
  0.7988269502134031  0.2778660740628567  0.4477809747220363
  0.5036029332233554  0.3995921843910821  0.4835666780692236
  0.6570982679312181  0.5404283442123301  0.4846980585664440
  0.6383002110793612  0.3968352182629928  0.5666621928595816
  0.9006686795710124  0.5212777345230322  0.4826399330061264
  0.8883331186890899  0.3679181609816879  0.4850357817049300
  0.7630376461088062  0.3866386249161380  0.5653969630499205
  0.3667225386038950  0.8937818714603551  0.4798115037311987
  0.5202220590511928  0.9067569310334349  0.4914718631084227
  0.3841690750110871  0.7682779132503228  0.5656598339222683
  0.5327685484609717  0.6590605523122548  0.4803158805343344
  0.3917870977236007  0.5058587496942337  0.4910232967850874
  0.3898291392652240  0.6420396159402415  0.5656724091926577
  0.1314608576205742  0.4930373240468384  0.4804858345686114
  0.1188576182853254  0.6338019202199376  0.4914438320772305
  0.2573325357622949  0.6360943933182597  0.5655533971603148
  0.6196687557600029  0.5848228330792296  0.4751361961485898
  0.9703627312805096  0.4057607119231506  0.4771519741459045
  0.5559781494826126  0.3769630287669159  0.6642104617108515
  0.8262774306451490  0.4695056799880675  0.6626505993106662
  0.4738205487105560  0.6701120565215817  0.6620660562164531
  0.2018772200117382  0.5521029801165085  0.6621775360297377
  0.3556201860026675  0.8240627847671860  0.6618328611659408
  0.5216762426627426  0.9281583861700398  0.3757356151050715
  0.4119811107596405  0.5051083332801767  0.3754174428144879
  0.0980458363619334  0.6129259019397182  0.3753786556507208
  0.7468636248917520  0.5413168883857793  0.4480711833534770
  0.5339419441465338  0.8231766783025378  0.4507427938782982
  0.2946540778161690  0.4923111198445795  0.4502329784821058
  0.2027571471768823  0.7311688813766253  0.4505291491085970
  0.7048596537829113  0.2615639181293403  0.7162605452950359
  0.5602020930800009  0.3196384896589919  0.7172172819274039
  0.7639742020534683  0.4630633391771042  0.7160940216928537
  0.4629329232966199  0.7225759027839089  0.7170127403776974
  0.2661172119482274  0.5644857228731155  0.7163500352441261
  0.3052600465064401  0.7591751783349139  0.7160540646789570
  0.5959544713864133  0.9912721739193415  0.3841003748140750
  0.4004165937822108  0.4306089354343428  0.3824923079041085
  0.0344455525875844  0.6235870044663159  0.3799906300318057
 
  0.00000000E+00  0.00000000E+00  0.00000000E+00
  0.00000000E+00  0.00000000E+00  0.00000000E+00
  0.00000000E+00  0.00000000E+00  0.00000000E+00
  0.00000000E+00  0.00000000E+00  0.00000000E+00
  0.00000000E+00  0.00000000E+00  0.00000000E+00
  0.00000000E+00  0.00000000E+00  0.00000000E+00
  0.00000000E+00  0.00000000E+00  0.00000000E+00
  0.00000000E+00  0.00000000E+00  0.00000000E+00
  0.00000000E+00  0.00000000E+00  0.00000000E+00
  0.00000000E+00  0.00000000E+00  0.00000000E+00
  0.00000000E+00  0.00000000E+00  0.00000000E+00
  0.00000000E+00  0.00000000E+00  0.00000000E+00
  0.00000000E+00  0.00000000E+00  0.00000000E+00
  0.00000000E+00  0.00000000E+00  0.00000000E+00
  0.00000000E+00  0.00000000E+00  0.00000000E+00
  0.00000000E+00  0.00000000E+00  0.00000000E+00
  0.00000000E+00  0.00000000E+00  0.00000000E+00
  0.00000000E+00  0.00000000E+00  0.00000000E+00
  0.00000000E+00  0.00000000E+00  0.00000000E+00
  0.00000000E+00  0.00000000E+00  0.00000000E+00
  0.00000000E+00  0.00000000E+00  0.00000000E+00
  0.00000000E+00  0.00000000E+00  0.00000000E+00
  0.00000000E+00  0.00000000E+00  0.00000000E+00
  0.00000000E+00  0.00000000E+00  0.00000000E+00
  0.00000000E+00  0.00000000E+00  0.00000000E+00
  0.00000000E+00  0.00000000E+00  0.00000000E+00
  0.00000000E+00  0.00000000E+00  0.00000000E+00
  0.00000000E+00  0.00000000E+00  0.00000000E+00
  0.00000000E+00  0.00000000E+00  0.00000000E+00
  0.00000000E+00  0.00000000E+00  0.00000000E+00
  0.00000000E+00  0.00000000E+00  0.00000000E+00
  0.00000000E+00  0.00000000E+00  0.00000000E+00
  0.00000000E+00  0.00000000E+00  0.00000000E+00
  0.00000000E+00  0.00000000E+00  0.00000000E+00
  0.00000000E+00  0.00000000E+00  0.00000000E+00
  0.00000000E+00  0.00000000E+00  0.00000000E+00
  0.00000000E+00  0.00000000E+00  0.00000000E+00
  0.00000000E+00  0.00000000E+00  0.00000000E+00
  0.00000000E+00  0.00000000E+00  0.00000000E+00
  0.00000000E+00  0.00000000E+00  0.00000000E+00
  0.00000000E+00  0.00000000E+00  0.00000000E+00
  0.00000000E+00  0.00000000E+00  0.00000000E+00
  0.00000000E+00  0.00000000E+00  0.00000000E+00
  0.00000000E+00  0.00000000E+00  0.00000000E+00
  0.00000000E+00  0.00000000E+00  0.00000000E+00
  0.00000000E+00  0.00000000E+00  0.00000000E+00
  0.00000000E+00  0.00000000E+00  0.00000000E+00
  0.00000000E+00  0.00000000E+00  0.00000000E+00
  0.00000000E+00  0.00000000E+00  0.00000000E+00
  0.00000000E+00  0.00000000E+00  0.00000000E+00
  0.00000000E+00  0.00000000E+00  0.00000000E+00
  0.00000000E+00  0.00000000E+00  0.00000000E+00
  0.00000000E+00  0.00000000E+00  0.00000000E+00
  0.00000000E+00  0.00000000E+00  0.00000000E+00
  0.00000000E+00  0.00000000E+00  0.00000000E+00
  0.00000000E+00  0.00000000E+00  0.00000000E+00
  0.00000000E+00  0.00000000E+00  0.00000000E+00
  0.00000000E+00  0.00000000E+00  0.00000000E+00
  0.00000000E+00  0.00000000E+00  0.00000000E+00
  0.00000000E+00  0.00000000E+00  0.00000000E+00
  0.00000000E+00  0.00000000E+00  0.00000000E+00
  0.00000000E+00  0.00000000E+00  0.00000000E+00
  0.00000000E+00  0.00000000E+00  0.00000000E+00
  0.00000000E+00  0.00000000E+00  0.00000000E+00
  0.00000000E+00  0.00000000E+00  0.00000000E+00
  0.00000000E+00  0.00000000E+00  0.00000000E+00
  0.00000000E+00  0.00000000E+00  0.00000000E+00
  0.00000000E+00  0.00000000E+00  0.00000000E+00
  0.00000000E+00  0.00000000E+00  0.00000000E+00
  0.00000000E+00  0.00000000E+00  0.00000000E+00
  0.00000000E+00  0.00000000E+00  0.00000000E+00
  0.00000000E+00  0.00000000E+00  0.00000000E+00
  0.00000000E+00  0.00000000E+00  0.00000000E+00
  0.00000000E+00  0.00000000E+00  0.00000000E+00
  0.00000000E+00  0.00000000E+00  0.00000000E+00
  0.00000000E+00  0.00000000E+00  0.00000000E+00
  0.00000000E+00  0.00000000E+00  0.00000000E+00
  0.00000000E+00  0.00000000E+00  0.00000000E+00
  0.00000000E+00  0.00000000E+00  0.00000000E+00
  0.00000000E+00  0.00000000E+00  0.00000000E+00
  0.00000000E+00  0.00000000E+00  0.00000000E+00
  0.00000000E+00  0.00000000E+00  0.00000000E+00
  0.00000000E+00  0.00000000E+00  0.00000000E+00
  0.00000000E+00  0.00000000E+00  0.00000000E+00
  0.00000000E+00  0.00000000E+00  0.00000000E+00
  0.00000000E+00  0.00000000E+00  0.00000000E+00
  0.00000000E+00  0.00000000E+00  0.00000000E+00
  0.00000000E+00  0.00000000E+00  0.00000000E+00
  0.00000000E+00  0.00000000E+00  0.00000000E+00
  0.00000000E+00  0.00000000E+00  0.00000000E+00
  0.00000000E+00  0.00000000E+00  0.00000000E+00
  0.00000000E+00  0.00000000E+00  0.00000000E+00
  0.00000000E+00  0.00000000E+00  0.00000000E+00
  0.00000000E+00  0.00000000E+00  0.00000000E+00
  0.00000000E+00  0.00000000E+00  0.00000000E+00
  0.00000000E+00  0.00000000E+00  0.00000000E+00
  0.00000000E+00  0.00000000E+00  0.00000000E+00
  0.00000000E+00  0.00000000E+00  0.00000000E+00
  0.00000000E+00  0.00000000E+00  0.00000000E+00
  0.00000000E+00  0.00000000E+00  0.00000000E+00
  0.00000000E+00  0.00000000E+00  0.00000000E+00
  0.00000000E+00  0.00000000E+00  0.00000000E+00
  0.00000000E+00  0.00000000E+00  0.00000000E+00
  0.00000000E+00  0.00000000E+00  0.00000000E+00
  0.00000000E+00  0.00000000E+00  0.00000000E+00
  0.00000000E+00  0.00000000E+00  0.00000000E+00
  0.00000000E+00  0.00000000E+00  0.00000000E+00
  0.00000000E+00  0.00000000E+00  0.00000000E+00
  0.00000000E+00  0.00000000E+00  0.00000000E+00
  0.00000000E+00  0.00000000E+00  0.00000000E+00
  0.00000000E+00  0.00000000E+00  0.00000000E+00
  0.00000000E+00  0.00000000E+00  0.00000000E+00
  0.00000000E+00  0.00000000E+00  0.00000000E+00
  0.00000000E+00  0.00000000E+00  0.00000000E+00
  0.00000000E+00  0.00000000E+00  0.00000000E+00
  0.00000000E+00  0.00000000E+00  0.00000000E+00
  0.00000000E+00  0.00000000E+00  0.00000000E+00
  0.00000000E+00  0.00000000E+00  0.00000000E+00
  0.00000000E+00  0.00000000E+00  0.00000000E+00
  0.00000000E+00  0.00000000E+00  0.00000000E+00
  0.00000000E+00  0.00000000E+00  0.00000000E+00
  0.00000000E+00  0.00000000E+00  0.00000000E+00
  0.00000000E+00  0.00000000E+00  0.00000000E+00
  0.00000000E+00  0.00000000E+00  0.00000000E+00
  0.00000000E+00  0.00000000E+00  0.00000000E+00
  0.00000000E+00  0.00000000E+00  0.00000000E+00
  0.00000000E+00  0.00000000E+00  0.00000000E+00
  0.00000000E+00  0.00000000E+00  0.00000000E+00
  0.00000000E+00  0.00000000E+00  0.00000000E+00
  0.00000000E+00  0.00000000E+00  0.00000000E+00
  0.00000000E+00  0.00000000E+00  0.00000000E+00
  0.00000000E+00  0.00000000E+00  0.00000000E+00
  0.00000000E+00  0.00000000E+00  0.00000000E+00
  0.00000000E+00  0.00000000E+00  0.00000000E+00
  0.00000000E+00  0.00000000E+00  0.00000000E+00
  0.00000000E+00  0.00000000E+00  0.00000000E+00
  0.00000000E+00  0.00000000E+00  0.00000000E+00
  0.00000000E+00  0.00000000E+00  0.00000000E+00
  0.00000000E+00  0.00000000E+00  0.00000000E+00
  0.00000000E+00  0.00000000E+00  0.00000000E+00
  0.00000000E+00  0.00000000E+00  0.00000000E+00
  0.00000000E+00  0.00000000E+00  0.00000000E+00
  0.00000000E+00  0.00000000E+00  0.00000000E+00
  0.00000000E+00  0.00000000E+00  0.00000000E+00
