Primitive Cell                          
   1.00000000000000     
    14.3155196184823410    0.0026390198150036    0.0000000000000000
     7.1600452670925971   12.3962841482745691    0.0000000000000000
     0.0000000000000000    0.0000000000000000   20.0000000000000000
   H    C    N 
    12    30    12
Direct
  0.4243070620934333  0.2350819289107591  0.6423973325627230
  0.5146302951706687  0.0581398296957474  0.2923859040611561
  0.4251050420200926  0.4251050420200997  0.6425367271165499
  0.6317424368878832  0.6317424368878832  0.6425222674919482
  0.2350819289107591  0.4243070620934333  0.6423973325627230
  0.8216887383206313  0.6314403564302538  0.6424360535239586
  0.6314403564302538  0.8216887383206313  0.6424360535239586
  0.5127693207257735  0.5127693207257735  0.2894442027656225
  0.5429041837133326  0.5429041837133326  0.2928254371497232
  0.0581398296957474  0.5146302951706687  0.2923859040611561
  0.9978019526994260  0.5437265554782371  0.2894476919978572
  0.5437265554782371  0.9978019526994260  0.2894476919978572
  0.4143696433966895  0.2567541025492872  0.5117320724163150
  0.4991916803129826  0.0862081271038093  0.5807772352679308
  0.4746057741622352  0.1360972628953903  0.5164459130971508
  0.4683364978206654  0.1472477661180065  0.6420665248278681
  0.5020604599417240  0.0794633526962087  0.6957932819285730
  0.2567541025492872  0.4143696433966895  0.5117320724163150
  0.4142959669852431  0.4142959669852431  0.5118270244791177
  0.8000624159135441  0.6425143817237284  0.5116702378552276
  0.6425143817237284  0.8000624159135441  0.5116702378552276
  0.6425281894261872  0.6425281894261872  0.5116298487530671
  0.5822343361883284  0.5822343361883284  0.5165343024474183
  0.5573248368539510  0.5573248368539510  0.5808924344199085
  0.4995291946909219  0.4995291946909219  0.5809224560394384
  0.4745741239956089  0.4745741239956089  0.5166072418571801
  0.4690079357775048  0.4690079357775048  0.6422027455109500
  0.5029066095386980  0.5029066095386980  0.6959243948878964
  0.5539477309315686  0.5539477309315686  0.6959158713077400
  0.5878367907952295  0.5878367907952295  0.6421746925494318
  0.9206804864755540  0.5821866369075508  0.5164500753453396
  0.9705604967743184  0.5570836651321684  0.5807880212038938
  0.0862081271038093  0.4991916803129826  0.5807772352679308
  0.1360972628953903  0.4746057741622352  0.5164459130971508
  0.1472477661180065  0.4683364978206654  0.6420665248278681
  0.0794633526962087  0.5020604599417240  0.6957932819285730
  0.9773512411894814  0.5532292966031136  0.6957995116407361
  0.9095312945174001  0.5874228901162795  0.6420874551076849
  0.5821866369075508  0.9206804864755540  0.5164500753453396
  0.5570836651321684  0.9705604967743184  0.5807880212038938
  0.5532292966031136  0.9773512411894814  0.6957995116407361
  0.5874228901162795  0.9095312945174001  0.6420874551076849
  0.3062406568431655  0.3062406568431655  0.5120198288114821
  0.4730456643377252  0.3061663078438457  0.5120763996292510
  0.5015589170450809  0.0826722482209021  0.4591732297494531
  0.3061663078438457  0.4730456643377252  0.5120763996292510
  0.7506421563336332  0.7506421563336332  0.5120638326678630
  0.5838358367111098  0.7506596791938094  0.5118492991380705
  0.7506596791938094  0.5838358367111098  0.5118492991380705
  0.5012128622619372  0.5012128622619372  0.4593125303243397
  0.5555013039524397  0.5555013039524397  0.4593004018893723
  0.0826722482209021  0.5015589170450809  0.4591732297494531
  0.9740636046026907  0.5556476229740781  0.4591755230122772
  0.5556476229740781  0.9740636046026907  0.4591755230122772
 
  0.00000000E+00  0.00000000E+00  0.00000000E+00
  0.00000000E+00  0.00000000E+00  0.00000000E+00
  0.00000000E+00  0.00000000E+00  0.00000000E+00
  0.00000000E+00  0.00000000E+00  0.00000000E+00
  0.00000000E+00  0.00000000E+00  0.00000000E+00
  0.00000000E+00  0.00000000E+00  0.00000000E+00
  0.00000000E+00  0.00000000E+00  0.00000000E+00
  0.00000000E+00  0.00000000E+00  0.00000000E+00
  0.00000000E+00  0.00000000E+00  0.00000000E+00
  0.00000000E+00  0.00000000E+00  0.00000000E+00
  0.00000000E+00  0.00000000E+00  0.00000000E+00
  0.00000000E+00  0.00000000E+00  0.00000000E+00
  0.00000000E+00  0.00000000E+00  0.00000000E+00
  0.00000000E+00  0.00000000E+00  0.00000000E+00
  0.00000000E+00  0.00000000E+00  0.00000000E+00
  0.00000000E+00  0.00000000E+00  0.00000000E+00
  0.00000000E+00  0.00000000E+00  0.00000000E+00
  0.00000000E+00  0.00000000E+00  0.00000000E+00
  0.00000000E+00  0.00000000E+00  0.00000000E+00
  0.00000000E+00  0.00000000E+00  0.00000000E+00
  0.00000000E+00  0.00000000E+00  0.00000000E+00
  0.00000000E+00  0.00000000E+00  0.00000000E+00
  0.00000000E+00  0.00000000E+00  0.00000000E+00
  0.00000000E+00  0.00000000E+00  0.00000000E+00
  0.00000000E+00  0.00000000E+00  0.00000000E+00
  0.00000000E+00  0.00000000E+00  0.00000000E+00
  0.00000000E+00  0.00000000E+00  0.00000000E+00
  0.00000000E+00  0.00000000E+00  0.00000000E+00
  0.00000000E+00  0.00000000E+00  0.00000000E+00
  0.00000000E+00  0.00000000E+00  0.00000000E+00
  0.00000000E+00  0.00000000E+00  0.00000000E+00
  0.00000000E+00  0.00000000E+00  0.00000000E+00
  0.00000000E+00  0.00000000E+00  0.00000000E+00
  0.00000000E+00  0.00000000E+00  0.00000000E+00
  0.00000000E+00  0.00000000E+00  0.00000000E+00
  0.00000000E+00  0.00000000E+00  0.00000000E+00
  0.00000000E+00  0.00000000E+00  0.00000000E+00
  0.00000000E+00  0.00000000E+00  0.00000000E+00
  0.00000000E+00  0.00000000E+00  0.00000000E+00
  0.00000000E+00  0.00000000E+00  0.00000000E+00
  0.00000000E+00  0.00000000E+00  0.00000000E+00
  0.00000000E+00  0.00000000E+00  0.00000000E+00
  0.00000000E+00  0.00000000E+00  0.00000000E+00
  0.00000000E+00  0.00000000E+00  0.00000000E+00
  0.00000000E+00  0.00000000E+00  0.00000000E+00
  0.00000000E+00  0.00000000E+00  0.00000000E+00
  0.00000000E+00  0.00000000E+00  0.00000000E+00
  0.00000000E+00  0.00000000E+00  0.00000000E+00
  0.00000000E+00  0.00000000E+00  0.00000000E+00
  0.00000000E+00  0.00000000E+00  0.00000000E+00
  0.00000000E+00  0.00000000E+00  0.00000000E+00
  0.00000000E+00  0.00000000E+00  0.00000000E+00
  0.00000000E+00  0.00000000E+00  0.00000000E+00
  0.00000000E+00  0.00000000E+00  0.00000000E+00
