Primitive Cell                          
   1.00000000000000     
    14.3607325471210210   -0.0139064428048639    0.0000000000000000
    -7.1923610684082657   12.4222476119120895    0.0000000000000000
     0.0000000000000000    0.0000000000000000   20.0000000000000000
   H    C    N    O 
    12    21    12     3
Direct
  0.2804028824310336  0.0412972157232758  0.5597187906603693
  0.3684057313889681  0.0855656225200363  0.6613102690013335
  0.3793106894584710  0.1754699878837656  0.5334772532353895
  0.9753560156466961  0.2604256769066993  0.5563589242397242
  0.8413184266716414  0.2260016526769419  0.5307725174212337
  0.9315989932977757  0.3007927781173692  0.6590813898650651
  0.7566987393694191  0.7378412572973048  0.5595193390809712
  0.7921062672205039  0.6394136948678693  0.5330411809808595
  0.7129130400842811  0.6497020026698905  0.6608953159851865
  0.0933658803255781  0.6968952949325669  0.5070284722281926
  0.3224299815879519  0.4190726968886480  0.5029986223046023
  0.5991672786060320  0.9266863790265987  0.5034701056493134
  0.5476264483421929  0.1219276560400644  0.5295318584219615
  0.4352958703511831  0.0608121794592407  0.5437215876154653
  0.3647130153904925  0.1065989160378749  0.5644677981501474
  0.6124301171480013  0.2422932130893543  0.5298203741177332
  0.6247145070453328  0.4058180089590522  0.5289948082218743
  0.7761596181713131  0.3939842178555466  0.5301768289654163
  0.3952212137127731  0.6323646284430779  0.5291401369574515
  0.3860679263347819  0.7852359552399122  0.5298496743573864
  0.2330393159421718  0.6227063778184814  0.5299622438908074
  0.8964709482386297  0.4492272434477655  0.5302472902829294
  0.1133841499751114  0.5597527379545753  0.5299377723727829
  0.9566680256230455  0.3966870937628997  0.5428685865297211
  0.9102966648656974  0.2793381937035591  0.5620454239426493
  0.5693826247470000  0.4705913394724206  0.5287217333167078
  0.4582857572247150  0.5759982629946876  0.5288144844169338
  0.6210931217210600  0.5829563011422749  0.5430047968229132
  0.7376097092855218  0.6535640882767453  0.5640286203024303
  0.4423861707611536  0.9049569974559120  0.5296300885009586
  0.0533075923430744  0.6106307320441076  0.5172961344234324
  0.4082460553177967  0.4654174989802868  0.5144749904420678
  0.5528503969144580  0.9659689480630789  0.5151339055839514
  0.6041507440715819  0.0731153773920923  0.5148240910232786
  0.5609000467610485  0.2981177572736726  0.5288555190902571
  0.7199918136515890  0.2863794020835186  0.5308016265835107
  0.7322828475808336  0.4575688707370773  0.5291595495513022
  0.4488535452931401  0.7404255289958570  0.5290752948842652
  0.2781149333424722  0.7305002081779932  0.5304810490064398
  0.2874087665674097  0.5692656322548615  0.5292503117136249
  0.0646392078655040  0.4537265796065739  0.5420589393033026
  0.5638044800063895  0.6333875732679033  0.5424353609929966
  0.3849525049314124  0.9528782981078265  0.5432393611027067
  0.9462318665139335  0.5553927892497512  0.5171265445750990
  0.4637695397278492  0.4140297833779485  0.5141473579335170
  0.3891214953672275  0.1469511792217730  0.6318621258721180
  0.8701277389658841  0.2610460123259344  0.6295095291820587
  0.7531792938098789  0.6287211581753169  0.6313664407675574
 
  0.00000000E+00  0.00000000E+00  0.00000000E+00
  0.00000000E+00  0.00000000E+00  0.00000000E+00
  0.00000000E+00  0.00000000E+00  0.00000000E+00
  0.00000000E+00  0.00000000E+00  0.00000000E+00
  0.00000000E+00  0.00000000E+00  0.00000000E+00
  0.00000000E+00  0.00000000E+00  0.00000000E+00
  0.00000000E+00  0.00000000E+00  0.00000000E+00
  0.00000000E+00  0.00000000E+00  0.00000000E+00
  0.00000000E+00  0.00000000E+00  0.00000000E+00
  0.00000000E+00  0.00000000E+00  0.00000000E+00
  0.00000000E+00  0.00000000E+00  0.00000000E+00
  0.00000000E+00  0.00000000E+00  0.00000000E+00
  0.00000000E+00  0.00000000E+00  0.00000000E+00
  0.00000000E+00  0.00000000E+00  0.00000000E+00
  0.00000000E+00  0.00000000E+00  0.00000000E+00
  0.00000000E+00  0.00000000E+00  0.00000000E+00
  0.00000000E+00  0.00000000E+00  0.00000000E+00
  0.00000000E+00  0.00000000E+00  0.00000000E+00
  0.00000000E+00  0.00000000E+00  0.00000000E+00
  0.00000000E+00  0.00000000E+00  0.00000000E+00
  0.00000000E+00  0.00000000E+00  0.00000000E+00
  0.00000000E+00  0.00000000E+00  0.00000000E+00
  0.00000000E+00  0.00000000E+00  0.00000000E+00
  0.00000000E+00  0.00000000E+00  0.00000000E+00
  0.00000000E+00  0.00000000E+00  0.00000000E+00
  0.00000000E+00  0.00000000E+00  0.00000000E+00
  0.00000000E+00  0.00000000E+00  0.00000000E+00
  0.00000000E+00  0.00000000E+00  0.00000000E+00
  0.00000000E+00  0.00000000E+00  0.00000000E+00
  0.00000000E+00  0.00000000E+00  0.00000000E+00
  0.00000000E+00  0.00000000E+00  0.00000000E+00
  0.00000000E+00  0.00000000E+00  0.00000000E+00
  0.00000000E+00  0.00000000E+00  0.00000000E+00
  0.00000000E+00  0.00000000E+00  0.00000000E+00
  0.00000000E+00  0.00000000E+00  0.00000000E+00
  0.00000000E+00  0.00000000E+00  0.00000000E+00
  0.00000000E+00  0.00000000E+00  0.00000000E+00
  0.00000000E+00  0.00000000E+00  0.00000000E+00
  0.00000000E+00  0.00000000E+00  0.00000000E+00
  0.00000000E+00  0.00000000E+00  0.00000000E+00
  0.00000000E+00  0.00000000E+00  0.00000000E+00
  0.00000000E+00  0.00000000E+00  0.00000000E+00
  0.00000000E+00  0.00000000E+00  0.00000000E+00
  0.00000000E+00  0.00000000E+00  0.00000000E+00
  0.00000000E+00  0.00000000E+00  0.00000000E+00
  0.00000000E+00  0.00000000E+00  0.00000000E+00
  0.00000000E+00  0.00000000E+00  0.00000000E+00
  0.00000000E+00  0.00000000E+00  0.00000000E+00
