Primitive Cell                          
   1.00000000000000     
    21.9737065736927804    0.0019557990942340    0.0000000000000000
   -10.9851085731220852   19.0120019209281494    0.0000000000000000
     0.0000000000000000    0.0000000000000000   20.0000000000000000
   C    N    H 
    30    24    42
Direct
  0.3619503440164706  0.7348622339295048  0.5099337553616223
  0.2651701064304746  0.6271123636233398  0.5095351778588295
  0.3728235276537575  0.6380147186177041  0.5099832127947366
  0.6379088914376609  0.2651696366062879  0.4896283568649196
  0.7346420360088288  0.3729351717886971  0.4899647075236615
  0.6269646267995839  0.3619786928876962  0.4899435562369518
  0.4827128627074515  0.9294221395311411  0.5068079096207043
  0.4703338973397777  0.9643448943390354  0.5596263620071156
  0.4879015328354370  0.0352121785735946  0.5526794802312125
  0.4658943078259696  0.8547391606171786  0.5168568213003724
  0.4457758699822705  0.5166575475943844  0.5075125538265652
  0.4927759791717179  0.5287326515900617  0.5605135212273282
  0.5463052447921513  0.5115370048782992  0.5535030632675912
  0.3881961372320575  0.5338340705588038  0.5172561179378050
  0.0706615067208816  0.5533275016728183  0.5069733381536139
  0.0358499850313478  0.5059952264390830  0.5598125323055569
  0.9649084076743719  0.4528759598103349  0.5530678196837613
  0.1453728347642809  0.6111182145671847  0.5167571731928859
  0.5166235781670849  0.0708343123620239  0.4921335416283412
  0.5286915778680523  0.0358395547226564  0.4391737864571397
  0.5115453260726781  0.9650831119963144  0.4462755371407283
  0.5338102402656872  0.1456280164441992  0.4823240478371176
  0.5531711611957348  0.4826934030825214  0.4930030127743237
  0.5059344991783732  0.4702925286362856  0.4401371893945125
  0.4526776723574670  0.4878724869972473  0.4470052104308806
  0.6110185377250019  0.4659199936516529  0.4830068279259336
  0.9290265417326466  0.4463419470055996  0.4927855241400465
  0.9638408808251882  0.4936453372297152  0.4399348316061449
  0.0347804575293083  0.5467714311636840  0.4466704476216634
  0.8542900679844934  0.3886464038987540  0.4829621699165614
  0.2907732536249625  0.6969033979518215  0.5099199074678467
  0.3030665658449436  0.5938320910583812  0.5099082484872568
  0.4060938526752480  0.7092412337062939  0.5101436422420491
  0.1942401575260106  0.5849784632667010  0.5087149185054471
  0.4148085993650739  0.6090508757329474  0.5098961408456191
  0.3907811725645232  0.8058392526152716  0.5097185779447884
  0.7090539765549195  0.3031320903909176  0.4895315312474864
  0.6967327945625854  0.4061933618270217  0.4898753784788283
  0.5937597902087788  0.2907724550459463  0.4898018835032332
  0.8055673542018837  0.4150314694569417  0.4904919774091638
  0.5847966867844860  0.3907506146780761  0.4900743688225333
  0.6089927682370728  0.1941929946890255  0.4895051305887108
  0.4775254604581392  0.0672978864450045  0.6094269513290982
  0.4384804761803309  0.9305758787723732  0.6202769108157540
  0.5890339745681530  0.5223472287208608  0.6101368981681077
  0.4902974534009630  0.5600801349739655  0.6213077015030208
  0.9329486100330513  0.4102175334452838  0.6097483541612121
  0.0698766763972003  0.5077055544850282  0.6202195359039280
  0.5600151176128350  0.0696601795864140  0.3783600565208758
  0.5223919251237064  0.9330544232986284  0.3897328864001466
  0.5079015711320523  0.4383878155303265  0.3795348690098095
  0.4102444102721847  0.4774631272656933  0.3902409812356851
  0.9297208773450905  0.4918574058775604  0.3795735675759744
  0.0667564276536083  0.5894394590244332  0.3900013887386535
  0.1755430503977280  0.5324580729840775  0.5112757905465060
  0.4673046146323685  0.6426682476848100  0.5128118068730316
  0.3570386224697728  0.8246113743249666  0.5117417030668676
  0.8243862906528889  0.4675740624483637  0.4880744304835289
  0.5323119487232688  0.3569257500127634  0.4876840204507218
  0.6425779703185484  0.1752895781245911  0.4864787769852938
  0.4284174998288037  0.0383817783082208  0.6293655231839281
  0.4891536632356122  0.1177653514196564  0.6021125630732058
  0.4353877451820409  0.8832464429618980  0.6271781730123465
  0.4611227048512774  0.9623950549814069  0.6607063880983972
  0.4944503213802918  0.8394964142924124  0.4817184096533893
  0.4841005657982862  0.8484769325503194  0.5667155542016218
  0.6093084326404465  0.5715969626019373  0.6298299619292038
  0.6278519027309670  0.5107415742751868  0.6028009810284516
  0.4456124849492440  0.5622487086057859  0.6283105715909372
  0.5000143445492569  0.5376799417692411  0.6615884754523336
  0.3444793803430741  0.5053641614634117  0.4820158499163583
  0.3634756919388806  0.5157407166903738  0.5670448261322107
  0.9616548506993325  0.3895745982982319  0.6292303061279867
  0.8823800361040668  0.3716340250741439  0.6025282504037364
  0.1171556746470728  0.5519878351950922  0.6270840770713164
  0.0382368779814328  0.4983271452579530  0.6608132128814006
  0.1602630472573310  0.6551176228034166  0.4819159105538446
  0.1520125444761646  0.6353265344797379  0.5668092381432643
  0.5622104941452051  0.1165611803006499  0.3713670513752731
  0.5375984515929062  0.0375384799136924  0.3380772011710107
  0.5110169794864206  0.8826892140731104  0.3972407352673244
  0.5715566452530965  0.9621293033146188  0.3699610958284723
  0.5156049619831506  0.1522319308490623  0.4325878846735947
  0.5055270679435750  0.1610125407068494  0.5176498454734286
  0.5521487202407158  0.4353673296709104  0.3726849551826561
  0.4987159357614459  0.4609553385235472  0.3390563826748618
  0.3715220258465806  0.4892214626290752  0.3974778281309526
  0.3899419346983990  0.4282903545469949  0.3703545129112911
  0.6355634494909808  0.4842291997452861  0.4331864779978929
  0.6547501415109664  0.4944617363604067  0.5182159415225271
  0.8824175081479169  0.4475855791969110  0.3727821734225145
  0.9612939967598138  0.5011986709948957  0.3389314599869664
  0.1173883590946829  0.6279053711821234  0.3971256165316248
  0.0381159224657708  0.6101317483888735  0.3704779910299223
  0.8477519746217368  0.3641594042595884  0.4330569112036287
  0.8391245735144821  0.3447784460746846  0.5180300370423581
 
  0.00000000E+00  0.00000000E+00  0.00000000E+00
  0.00000000E+00  0.00000000E+00  0.00000000E+00
  0.00000000E+00  0.00000000E+00  0.00000000E+00
  0.00000000E+00  0.00000000E+00  0.00000000E+00
  0.00000000E+00  0.00000000E+00  0.00000000E+00
  0.00000000E+00  0.00000000E+00  0.00000000E+00
  0.00000000E+00  0.00000000E+00  0.00000000E+00
  0.00000000E+00  0.00000000E+00  0.00000000E+00
  0.00000000E+00  0.00000000E+00  0.00000000E+00
  0.00000000E+00  0.00000000E+00  0.00000000E+00
  0.00000000E+00  0.00000000E+00  0.00000000E+00
  0.00000000E+00  0.00000000E+00  0.00000000E+00
  0.00000000E+00  0.00000000E+00  0.00000000E+00
  0.00000000E+00  0.00000000E+00  0.00000000E+00
  0.00000000E+00  0.00000000E+00  0.00000000E+00
  0.00000000E+00  0.00000000E+00  0.00000000E+00
  0.00000000E+00  0.00000000E+00  0.00000000E+00
  0.00000000E+00  0.00000000E+00  0.00000000E+00
  0.00000000E+00  0.00000000E+00  0.00000000E+00
  0.00000000E+00  0.00000000E+00  0.00000000E+00
  0.00000000E+00  0.00000000E+00  0.00000000E+00
  0.00000000E+00  0.00000000E+00  0.00000000E+00
  0.00000000E+00  0.00000000E+00  0.00000000E+00
  0.00000000E+00  0.00000000E+00  0.00000000E+00
  0.00000000E+00  0.00000000E+00  0.00000000E+00
  0.00000000E+00  0.00000000E+00  0.00000000E+00
  0.00000000E+00  0.00000000E+00  0.00000000E+00
  0.00000000E+00  0.00000000E+00  0.00000000E+00
  0.00000000E+00  0.00000000E+00  0.00000000E+00
  0.00000000E+00  0.00000000E+00  0.00000000E+00
  0.00000000E+00  0.00000000E+00  0.00000000E+00
  0.00000000E+00  0.00000000E+00  0.00000000E+00
  0.00000000E+00  0.00000000E+00  0.00000000E+00
  0.00000000E+00  0.00000000E+00  0.00000000E+00
  0.00000000E+00  0.00000000E+00  0.00000000E+00
  0.00000000E+00  0.00000000E+00  0.00000000E+00
  0.00000000E+00  0.00000000E+00  0.00000000E+00
  0.00000000E+00  0.00000000E+00  0.00000000E+00
  0.00000000E+00  0.00000000E+00  0.00000000E+00
  0.00000000E+00  0.00000000E+00  0.00000000E+00
  0.00000000E+00  0.00000000E+00  0.00000000E+00
  0.00000000E+00  0.00000000E+00  0.00000000E+00
  0.00000000E+00  0.00000000E+00  0.00000000E+00
  0.00000000E+00  0.00000000E+00  0.00000000E+00
  0.00000000E+00  0.00000000E+00  0.00000000E+00
  0.00000000E+00  0.00000000E+00  0.00000000E+00
  0.00000000E+00  0.00000000E+00  0.00000000E+00
  0.00000000E+00  0.00000000E+00  0.00000000E+00
  0.00000000E+00  0.00000000E+00  0.00000000E+00
  0.00000000E+00  0.00000000E+00  0.00000000E+00
  0.00000000E+00  0.00000000E+00  0.00000000E+00
  0.00000000E+00  0.00000000E+00  0.00000000E+00
  0.00000000E+00  0.00000000E+00  0.00000000E+00
  0.00000000E+00  0.00000000E+00  0.00000000E+00
  0.00000000E+00  0.00000000E+00  0.00000000E+00
  0.00000000E+00  0.00000000E+00  0.00000000E+00
  0.00000000E+00  0.00000000E+00  0.00000000E+00
  0.00000000E+00  0.00000000E+00  0.00000000E+00
  0.00000000E+00  0.00000000E+00  0.00000000E+00
  0.00000000E+00  0.00000000E+00  0.00000000E+00
  0.00000000E+00  0.00000000E+00  0.00000000E+00
  0.00000000E+00  0.00000000E+00  0.00000000E+00
  0.00000000E+00  0.00000000E+00  0.00000000E+00
  0.00000000E+00  0.00000000E+00  0.00000000E+00
  0.00000000E+00  0.00000000E+00  0.00000000E+00
  0.00000000E+00  0.00000000E+00  0.00000000E+00
  0.00000000E+00  0.00000000E+00  0.00000000E+00
  0.00000000E+00  0.00000000E+00  0.00000000E+00
  0.00000000E+00  0.00000000E+00  0.00000000E+00
  0.00000000E+00  0.00000000E+00  0.00000000E+00
  0.00000000E+00  0.00000000E+00  0.00000000E+00
  0.00000000E+00  0.00000000E+00  0.00000000E+00
  0.00000000E+00  0.00000000E+00  0.00000000E+00
  0.00000000E+00  0.00000000E+00  0.00000000E+00
  0.00000000E+00  0.00000000E+00  0.00000000E+00
  0.00000000E+00  0.00000000E+00  0.00000000E+00
  0.00000000E+00  0.00000000E+00  0.00000000E+00
  0.00000000E+00  0.00000000E+00  0.00000000E+00
  0.00000000E+00  0.00000000E+00  0.00000000E+00
  0.00000000E+00  0.00000000E+00  0.00000000E+00
  0.00000000E+00  0.00000000E+00  0.00000000E+00
  0.00000000E+00  0.00000000E+00  0.00000000E+00
  0.00000000E+00  0.00000000E+00  0.00000000E+00
  0.00000000E+00  0.00000000E+00  0.00000000E+00
  0.00000000E+00  0.00000000E+00  0.00000000E+00
  0.00000000E+00  0.00000000E+00  0.00000000E+00
  0.00000000E+00  0.00000000E+00  0.00000000E+00
  0.00000000E+00  0.00000000E+00  0.00000000E+00
  0.00000000E+00  0.00000000E+00  0.00000000E+00
  0.00000000E+00  0.00000000E+00  0.00000000E+00
  0.00000000E+00  0.00000000E+00  0.00000000E+00
  0.00000000E+00  0.00000000E+00  0.00000000E+00
  0.00000000E+00  0.00000000E+00  0.00000000E+00
  0.00000000E+00  0.00000000E+00  0.00000000E+00
  0.00000000E+00  0.00000000E+00  0.00000000E+00
  0.00000000E+00  0.00000000E+00  0.00000000E+00
