Primitive Cell                          
   1.00000000000000     
    21.9849779535128960   -0.0033003644736492    0.0000000000000000
   -10.9908280153878408   19.0523917547748312    0.0000000000000000
     0.0000000000000000    0.0000000000000000   20.0000000000000000
   C    N 
    48    36
Direct
  0.0995119704441052  0.8931423231435929  0.5712934936947534
  0.0795021524333208  0.9127414638213907  0.5114815520682257
  0.0400794070735344  0.9520616091124765  0.5121753441536754
  0.1891043798342054  0.8028873158590955  0.5096132194159253
  0.0829766429647307  0.9106684723794913  0.6351504067663925
  0.1498685401761222  0.8423381866063551  0.5102435551158493
  0.1301691271632492  0.8622106934732727  0.4504641505388705
  0.1479983426224649  0.8451634487726665  0.3870131524158680
  0.1883942294114576  0.7006929283721135  0.5125808723770575
  0.2912719220895355  0.8033828024437284  0.5113687137572782
  0.3696580241151537  0.8352142976153374  0.5118367736201606
  0.4063930310701522  0.8419942277029620  0.5723071332617522
  0.3794794942461692  0.8490555753653339  0.6351180745277816
  0.1561058930607544  0.6223422899082820  0.5138220865810581
  0.1423825430101502  0.5821615785093499  0.4544798048839880
  0.1293733388459799  0.6058708949452480  0.3924184374641015
  0.5378128978219863  0.8030305016782435  0.5115902462002992
  0.1872243153123847  0.4537491637295474  0.5134457004749962
  0.1551303786469020  0.5000536446592747  0.5139019302770009
  0.1487287600583755  0.5303963428506222  0.5742832170087979
  0.4915041245318719  0.8351247595246676  0.5121580682927842
  0.1407994991251584  0.4962946966628294  0.6371382889729347
  0.4647186621212356  0.8480815861738975  0.4526126502843084
  0.5014918494214911  0.8612560623072909  0.3905600253051347
  0.5376486491882488  0.7001799219193359  0.5126999716669971
  0.2902834630447870  0.4542439347749081  0.5151267153222108
  0.8195925310961769  0.8915797863369832  0.5711610700779985
  0.0985881396797836  0.1722479457658181  0.5703560626016966
  0.4909579764285752  0.6218868106357078  0.5143536615294693
  0.4612044769295878  0.5860114471474418  0.5752158073514693
  0.8590846977287043  0.9125134737182066  0.5112891617789970
  0.0795776091381413  0.1329414538333111  0.5103861752164676
  0.0401221573942507  0.0541994517268947  0.5111263677106308
  0.9379000308666647  0.9520906247618939  0.5120216301432237
  0.6393695200421377  0.8022127846889191  0.5101608578667154
  0.1883601008507725  0.3524975349213761  0.5098758786280158
  0.8541728078748605  0.9076124153654348  0.6347216673035589
  0.0812176097948552  0.1377771470896150  0.6339749010380089
  0.3686434067240825  0.5005534747577940  0.5160645481517534
  0.4956457650576240  0.6133382491112442  0.6377104517968561
  0.7181375872436178  0.8415439890326724  0.5105021737599884
  0.7575904076248605  0.8619129374731713  0.4506364477585407
  0.7227798864072881  0.8440529536209809  0.3871674478816161
  0.1494797229816598  0.2737664296185613  0.5098686773030323
  0.1309655711392850  0.2345032494754520  0.4499254794795533
  0.1493968410889579  0.2696592494816556  0.3866451810189417
  0.4082390939728384  0.5262692910762894  0.4562894810627824
  0.3842912813195483  0.4883770435980921  0.3948546572996250
  0.1347801657874754  0.8577970300072195  0.5700488659236740
  0.9698357190994358  0.9137675515889399  0.5130539997823718
  0.0784371209996024  0.0222671186055692  0.5114493269585125
  0.0686167828423834  0.9262318110933236  0.6861350125304995
  0.0948701337055340  0.8974876134703536  0.4516422764694568
  0.1646557170936020  0.8297854073787789  0.3372233039324399
  0.2595051890819136  0.8416493964091671  0.5092399877992548
  0.2586714633040899  0.7331999672082716  0.5140924210435287
  0.1535860711624579  0.5935722410504525  0.5728813580224354
  0.1501797999427197  0.7324932986386230  0.5100327776359705
  0.3541380168867647  0.8541505052009342  0.6845871239842722
  0.4015909089705545  0.8437782907369211  0.4534282981420503
  0.1200635445591018  0.6287000283570521  0.3432363242373313
  0.4650885109602925  0.8377303589559375  0.5711222009412253
  0.1344173597551688  0.4655755518328135  0.6867004666363599
  0.5337609710279736  0.8712592263417349  0.3413468771601558
  0.1462083846447939  0.5231018073890681  0.4554665810330150
  0.6077046925612706  0.7318073025479208  0.5112220672481556
  0.5000068888968059  0.7328078756973042  0.5136160511118817
  0.1492561888438573  0.3838038196660136  0.5094291125702242
  0.2573943457891446  0.4916039742009346  0.5177999055523159
  0.7489849447819452  0.8562493788240673  0.5701801958813206
  0.1335918260486437  0.2428108594916765  0.5694976315856124
  0.3979586626424805  0.5276939264526135  0.5747250509946298
  0.9698597333422043  0.0223224355124501  0.5114193938133056
  0.6078568880542790  0.8411386891518191  0.5094123748657537
  0.2587957121098441  0.3843677930229532  0.5109975676012297
  0.8852253463568474  0.9219626038824700  0.6850647768502967
  0.0660991568015064  0.1073095666718231  0.6846532397485916
  0.5263867783270868  0.6388643539190397  0.6869775056303098
  0.8281959792218174  0.8976985301213105  0.4516027623010643
  0.6912383359551768  0.8272237911011544  0.3371009890831616
  0.0959152448594907  0.1639242783753687  0.4507608630442022
  0.1660389100759332  0.3019067079454842  0.3369871934368547
  0.4670912880592368  0.5892954214786315  0.4563174824043870
  0.3615438582307462  0.4549600221228900  0.3463451709170116
 
  0.00000000E+00  0.00000000E+00  0.00000000E+00
  0.00000000E+00  0.00000000E+00  0.00000000E+00
  0.00000000E+00  0.00000000E+00  0.00000000E+00
  0.00000000E+00  0.00000000E+00  0.00000000E+00
  0.00000000E+00  0.00000000E+00  0.00000000E+00
  0.00000000E+00  0.00000000E+00  0.00000000E+00
  0.00000000E+00  0.00000000E+00  0.00000000E+00
  0.00000000E+00  0.00000000E+00  0.00000000E+00
  0.00000000E+00  0.00000000E+00  0.00000000E+00
  0.00000000E+00  0.00000000E+00  0.00000000E+00
  0.00000000E+00  0.00000000E+00  0.00000000E+00
  0.00000000E+00  0.00000000E+00  0.00000000E+00
  0.00000000E+00  0.00000000E+00  0.00000000E+00
  0.00000000E+00  0.00000000E+00  0.00000000E+00
  0.00000000E+00  0.00000000E+00  0.00000000E+00
  0.00000000E+00  0.00000000E+00  0.00000000E+00
  0.00000000E+00  0.00000000E+00  0.00000000E+00
  0.00000000E+00  0.00000000E+00  0.00000000E+00
  0.00000000E+00  0.00000000E+00  0.00000000E+00
  0.00000000E+00  0.00000000E+00  0.00000000E+00
  0.00000000E+00  0.00000000E+00  0.00000000E+00
  0.00000000E+00  0.00000000E+00  0.00000000E+00
  0.00000000E+00  0.00000000E+00  0.00000000E+00
  0.00000000E+00  0.00000000E+00  0.00000000E+00
  0.00000000E+00  0.00000000E+00  0.00000000E+00
  0.00000000E+00  0.00000000E+00  0.00000000E+00
  0.00000000E+00  0.00000000E+00  0.00000000E+00
  0.00000000E+00  0.00000000E+00  0.00000000E+00
  0.00000000E+00  0.00000000E+00  0.00000000E+00
  0.00000000E+00  0.00000000E+00  0.00000000E+00
  0.00000000E+00  0.00000000E+00  0.00000000E+00
  0.00000000E+00  0.00000000E+00  0.00000000E+00
  0.00000000E+00  0.00000000E+00  0.00000000E+00
  0.00000000E+00  0.00000000E+00  0.00000000E+00
  0.00000000E+00  0.00000000E+00  0.00000000E+00
  0.00000000E+00  0.00000000E+00  0.00000000E+00
  0.00000000E+00  0.00000000E+00  0.00000000E+00
  0.00000000E+00  0.00000000E+00  0.00000000E+00
  0.00000000E+00  0.00000000E+00  0.00000000E+00
  0.00000000E+00  0.00000000E+00  0.00000000E+00
  0.00000000E+00  0.00000000E+00  0.00000000E+00
  0.00000000E+00  0.00000000E+00  0.00000000E+00
  0.00000000E+00  0.00000000E+00  0.00000000E+00
  0.00000000E+00  0.00000000E+00  0.00000000E+00
  0.00000000E+00  0.00000000E+00  0.00000000E+00
  0.00000000E+00  0.00000000E+00  0.00000000E+00
  0.00000000E+00  0.00000000E+00  0.00000000E+00
  0.00000000E+00  0.00000000E+00  0.00000000E+00
  0.00000000E+00  0.00000000E+00  0.00000000E+00
  0.00000000E+00  0.00000000E+00  0.00000000E+00
  0.00000000E+00  0.00000000E+00  0.00000000E+00
  0.00000000E+00  0.00000000E+00  0.00000000E+00
  0.00000000E+00  0.00000000E+00  0.00000000E+00
  0.00000000E+00  0.00000000E+00  0.00000000E+00
  0.00000000E+00  0.00000000E+00  0.00000000E+00
  0.00000000E+00  0.00000000E+00  0.00000000E+00
  0.00000000E+00  0.00000000E+00  0.00000000E+00
  0.00000000E+00  0.00000000E+00  0.00000000E+00
  0.00000000E+00  0.00000000E+00  0.00000000E+00
  0.00000000E+00  0.00000000E+00  0.00000000E+00
  0.00000000E+00  0.00000000E+00  0.00000000E+00
  0.00000000E+00  0.00000000E+00  0.00000000E+00
  0.00000000E+00  0.00000000E+00  0.00000000E+00
  0.00000000E+00  0.00000000E+00  0.00000000E+00
  0.00000000E+00  0.00000000E+00  0.00000000E+00
  0.00000000E+00  0.00000000E+00  0.00000000E+00
  0.00000000E+00  0.00000000E+00  0.00000000E+00
  0.00000000E+00  0.00000000E+00  0.00000000E+00
  0.00000000E+00  0.00000000E+00  0.00000000E+00
  0.00000000E+00  0.00000000E+00  0.00000000E+00
  0.00000000E+00  0.00000000E+00  0.00000000E+00
  0.00000000E+00  0.00000000E+00  0.00000000E+00
  0.00000000E+00  0.00000000E+00  0.00000000E+00
  0.00000000E+00  0.00000000E+00  0.00000000E+00
  0.00000000E+00  0.00000000E+00  0.00000000E+00
  0.00000000E+00  0.00000000E+00  0.00000000E+00
  0.00000000E+00  0.00000000E+00  0.00000000E+00
  0.00000000E+00  0.00000000E+00  0.00000000E+00
  0.00000000E+00  0.00000000E+00  0.00000000E+00
  0.00000000E+00  0.00000000E+00  0.00000000E+00
  0.00000000E+00  0.00000000E+00  0.00000000E+00
  0.00000000E+00  0.00000000E+00  0.00000000E+00
  0.00000000E+00  0.00000000E+00  0.00000000E+00
  0.00000000E+00  0.00000000E+00  0.00000000E+00
