Primitive Cell                          
   1.00000000000000     
    21.9486199079065685   -0.0137421426154364    0.0000000000000000
   -10.9861840628045542   18.9963532522875447    0.0000000000000000
     0.0000000000000000    0.0000000000000000   20.0000000000000000
   H    O    N    C 
    18    18    12    30
Direct
  0.3254850516359653  0.8882921247762923  0.5040736318330445
  0.3841029381143954  0.0425199775747629  0.5375933192369757
  0.5390840482961607  0.1658329207963050  0.5183388934067210
  0.5557740706172396  0.6686798185680942  0.5037247190245964
  0.6513957995481050  0.6098679114865675  0.5362957569315725
  0.6189884629459925  0.4546970586441077  0.5166378799626514
  0.1047449656047306  0.4377850901191565  0.5029431329960801
  0.9499857531117257  0.3421061601420590  0.5355157212439252
  0.8273202818896053  0.3746646576946588  0.5159931195968142
  0.6100224590591452  0.9545747152044370  0.4586006823546995
  0.6687464525419884  0.1096907028043930  0.4921088949074104
  0.4542477160164822  0.8307245692816423  0.4789908296054790
  0.3364095187662954  0.3840439337704993  0.4591380929761044
  0.4326622301536318  0.3252902784390486  0.4917847658397960
  0.3689834470398381  0.5397203033599780  0.4790448842601478
  0.0403783850401069  0.6574922091988995  0.4591537882706476
  0.8850606389759861  0.5612338253243365  0.4913965131502707
  0.1631050302617254  0.6245273350193159  0.4785211631055830
  0.3022072169261705  0.8149463850662713  0.4737855396061406
  0.1788036848249490  0.4882392605449084  0.4739407345049784
  0.5052996212465857  0.6920370730328216  0.4745751348001264
  0.6923427191490816  0.1845575307897462  0.5197834341156167
  0.8101981873553470  0.5101014475736676  0.5191961319909097
  0.4837686907061212  0.3016872427918003  0.5198804451451977
  0.3537629270596199  0.9375174073695547  0.5241266285616675
  0.4348769713467888  0.0756338195750601  0.5344295975897140
  0.5770554982190532  0.6404326119476522  0.5229380270604267
  0.6334686520984647  0.5590493315960856  0.5333340703104312
  0.0551427293060271  0.4164620546479867  0.5221208308276601
  0.9171564419758056  0.3600483278998112  0.5325436605387779
  0.5592170357858350  0.9216004986048674  0.4616360494285914
  0.6407547253947925  0.0596859418009288  0.4738191216533423
  0.3544030772747888  0.4348666701590673  0.4621628540014271
  0.4108781992709609  0.3533326306363875  0.4732614028416222
  0.0730782958924507  0.6393998061316992  0.4620603879611025
  0.9350144204170903  0.5830925933747650  0.4730604657217299
  0.3169230535868053  0.5972766430431875  0.4723250671755750
  0.3963590670193753  0.7210077850728780  0.4726663643973339
  0.2727142212205109  0.6766567633040665  0.4717759547518057
  0.6721877551747042  0.3991893863449150  0.5220391477938477
  0.5946972946699489  0.2750622200671629  0.5231948492902134
  0.7187106328341102  0.3218034461066637  0.5229822424297552
  0.5722694634854406  0.1455992422843053  0.5143967953434512
  0.5654468749533947  0.4215929293518599  0.5131045609996079
  0.8479697589569355  0.4282151652218715  0.5121776789897652
  0.4215749417800296  0.8515820196380375  0.4824015390624581
  0.4225641352095835  0.5725096591211880  0.4825672014527527
  0.1421420232061976  0.5709222976188855  0.4819948639315115
  0.3819990278446141  0.6542461621585574  0.4727542379500846
  0.3395094847916127  0.7291361298232815  0.4723855214789907
  0.4434599058016531  0.6416882310430552  0.4763170365339064
  0.3523740777972151  0.8033103598939348  0.4758331656614203
  0.1903942890536356  0.5500711213951277  0.4757006941897686
  0.6076581272938029  0.3413474777908831  0.5224033999957243
  0.6524406089552599  0.2683806253541050  0.5229990394055619
  0.5453215458211744  0.3525709582828824  0.5187474714325049
  0.6412824390118743  0.1948323559136824  0.5193917955151548
  0.7992648689146904  0.4485060356111816  0.5180823923697488
  0.5388011247379438  0.0724948730219097  0.5065756561155439
  0.4229240928707085  0.9638124038076654  0.5091096948281120
  0.4651572788226872  0.0366963221199867  0.5162637635092580
  0.5259999750391273  0.4552128755864828  0.5056615032391889
  0.5336852443866889  0.5712033751216339  0.5083681017522181
  0.5641447192170830  0.5288672157290364  0.5153548356128184
  0.9211693657445039  0.4676330647801805  0.5049003690770846
  0.0293881644302658  0.4598484825318181  0.5076537362077147
  0.9565163391839135  0.4294073427637031  0.5145887956231689
  0.2645290992317939  0.6115968324389627  0.4722414254419220
  0.7255200601212124  0.3862939573084816  0.5220992242086879
  0.5714218719653417  0.0334095755100492  0.4880134625496737
  0.5290979796786459  0.9605528814847233  0.4803614355492485
  0.4554608368634661  0.9247439830754445  0.4902475478176029
  0.4541424178958380  0.4226575622171964  0.4875066937065640
  0.4236968665693226  0.4650026728782564  0.4803355204997146
  0.4618444791575982  0.5386825893876974  0.4900627223330432
  0.9607732704948688  0.5396004423640406  0.4870292015753677
  0.0336396392628728  0.5700130488966551  0.4799519601483837
  0.0689617330744809  0.5317357587866880  0.4895030097042294
 
  0.00000000E+00  0.00000000E+00  0.00000000E+00
  0.00000000E+00  0.00000000E+00  0.00000000E+00
  0.00000000E+00  0.00000000E+00  0.00000000E+00
  0.00000000E+00  0.00000000E+00  0.00000000E+00
  0.00000000E+00  0.00000000E+00  0.00000000E+00
  0.00000000E+00  0.00000000E+00  0.00000000E+00
  0.00000000E+00  0.00000000E+00  0.00000000E+00
  0.00000000E+00  0.00000000E+00  0.00000000E+00
  0.00000000E+00  0.00000000E+00  0.00000000E+00
  0.00000000E+00  0.00000000E+00  0.00000000E+00
  0.00000000E+00  0.00000000E+00  0.00000000E+00
  0.00000000E+00  0.00000000E+00  0.00000000E+00
  0.00000000E+00  0.00000000E+00  0.00000000E+00
  0.00000000E+00  0.00000000E+00  0.00000000E+00
  0.00000000E+00  0.00000000E+00  0.00000000E+00
  0.00000000E+00  0.00000000E+00  0.00000000E+00
  0.00000000E+00  0.00000000E+00  0.00000000E+00
  0.00000000E+00  0.00000000E+00  0.00000000E+00
  0.00000000E+00  0.00000000E+00  0.00000000E+00
  0.00000000E+00  0.00000000E+00  0.00000000E+00
  0.00000000E+00  0.00000000E+00  0.00000000E+00
  0.00000000E+00  0.00000000E+00  0.00000000E+00
  0.00000000E+00  0.00000000E+00  0.00000000E+00
  0.00000000E+00  0.00000000E+00  0.00000000E+00
  0.00000000E+00  0.00000000E+00  0.00000000E+00
  0.00000000E+00  0.00000000E+00  0.00000000E+00
  0.00000000E+00  0.00000000E+00  0.00000000E+00
  0.00000000E+00  0.00000000E+00  0.00000000E+00
  0.00000000E+00  0.00000000E+00  0.00000000E+00
  0.00000000E+00  0.00000000E+00  0.00000000E+00
  0.00000000E+00  0.00000000E+00  0.00000000E+00
  0.00000000E+00  0.00000000E+00  0.00000000E+00
  0.00000000E+00  0.00000000E+00  0.00000000E+00
  0.00000000E+00  0.00000000E+00  0.00000000E+00
  0.00000000E+00  0.00000000E+00  0.00000000E+00
  0.00000000E+00  0.00000000E+00  0.00000000E+00
  0.00000000E+00  0.00000000E+00  0.00000000E+00
  0.00000000E+00  0.00000000E+00  0.00000000E+00
  0.00000000E+00  0.00000000E+00  0.00000000E+00
  0.00000000E+00  0.00000000E+00  0.00000000E+00
  0.00000000E+00  0.00000000E+00  0.00000000E+00
  0.00000000E+00  0.00000000E+00  0.00000000E+00
  0.00000000E+00  0.00000000E+00  0.00000000E+00
  0.00000000E+00  0.00000000E+00  0.00000000E+00
  0.00000000E+00  0.00000000E+00  0.00000000E+00
  0.00000000E+00  0.00000000E+00  0.00000000E+00
  0.00000000E+00  0.00000000E+00  0.00000000E+00
  0.00000000E+00  0.00000000E+00  0.00000000E+00
  0.00000000E+00  0.00000000E+00  0.00000000E+00
  0.00000000E+00  0.00000000E+00  0.00000000E+00
  0.00000000E+00  0.00000000E+00  0.00000000E+00
  0.00000000E+00  0.00000000E+00  0.00000000E+00
  0.00000000E+00  0.00000000E+00  0.00000000E+00
  0.00000000E+00  0.00000000E+00  0.00000000E+00
  0.00000000E+00  0.00000000E+00  0.00000000E+00
  0.00000000E+00  0.00000000E+00  0.00000000E+00
  0.00000000E+00  0.00000000E+00  0.00000000E+00
  0.00000000E+00  0.00000000E+00  0.00000000E+00
  0.00000000E+00  0.00000000E+00  0.00000000E+00
  0.00000000E+00  0.00000000E+00  0.00000000E+00
  0.00000000E+00  0.00000000E+00  0.00000000E+00
  0.00000000E+00  0.00000000E+00  0.00000000E+00
  0.00000000E+00  0.00000000E+00  0.00000000E+00
  0.00000000E+00  0.00000000E+00  0.00000000E+00
  0.00000000E+00  0.00000000E+00  0.00000000E+00
  0.00000000E+00  0.00000000E+00  0.00000000E+00
  0.00000000E+00  0.00000000E+00  0.00000000E+00
  0.00000000E+00  0.00000000E+00  0.00000000E+00
  0.00000000E+00  0.00000000E+00  0.00000000E+00
  0.00000000E+00  0.00000000E+00  0.00000000E+00
  0.00000000E+00  0.00000000E+00  0.00000000E+00
  0.00000000E+00  0.00000000E+00  0.00000000E+00
  0.00000000E+00  0.00000000E+00  0.00000000E+00
  0.00000000E+00  0.00000000E+00  0.00000000E+00
  0.00000000E+00  0.00000000E+00  0.00000000E+00
  0.00000000E+00  0.00000000E+00  0.00000000E+00
  0.00000000E+00  0.00000000E+00  0.00000000E+00
  0.00000000E+00  0.00000000E+00  0.00000000E+00
