Primitive Cell                          
   1.00000000000000     
    34.5213165154556023   -0.0227608942000415    0.0000000000000000
   -17.2699107371622986   29.9087534475038446    0.0000000000000000
     0.0000000000000000    0.0000000000000000   20.0000000000000000
   O    N    H    C 
    12     6    54    96
Direct
  0.8337321594499016  0.3980007832780927  0.3113338346648433
  0.7848706991706607  0.4059760334099280  0.3720272707381937
  0.5993877000523327  0.4437774563973562  0.3107825816067944
  0.5903261186405544  0.3872286851898039  0.3732328531769156
  0.5528180968341943  0.1661920296643373  0.3108300964246169
  0.6094645368138103  0.2134898436091817  0.3734104134990019
  0.8625538162737456  0.1314862524465923  0.6655432661124081
  0.8437283534807065  0.0675083648891146  0.6158617936115505
  0.8641934725868907  0.7402605966464009  0.6661398424924556
  0.9282796829587596  0.7858297069601434  0.6169203933114531
  0.2557406379347995  0.1355266718105312  0.6662073852593835
  0.2103776878151393  0.1537438621444238  0.6157019985644467
  0.8145164129287892  0.3961965035657187  0.3645999567551570
  0.6005637739682399  0.4267023280721887  0.3647317106101440
  0.5699309291884873  0.1843403217975847  0.3648290582656983
  0.8531566211750103  0.1071235585994188  0.6154897818804415
  0.8886726365122968  0.7555344554833994  0.6162418378972419
  0.2405766356927472  0.1443190259273806  0.6157969257634832
  0.0362069560419798  0.9610553119274385  0.4923913290240591
  0.0349681560547310  0.0851020777815137  0.4921536099470813
  0.9108014216087810  0.9597101791160938  0.4923956303458539
  0.7365249953181774  0.1362522572622069  0.4956185601175633
  0.8625346476854006  0.2595845214463566  0.4794730454168530
  0.7389751879243320  0.2618878144686647  0.4836133303019210
  0.8603072358782669  0.6102143148356944  0.4958430090467516
  0.7367795314352890  0.6123664563871642  0.4791614609259369
  0.7348197399011198  0.4867264365762836  0.4825412227149215
  0.3857402939334165  0.2595373819338818  0.4964774476375666
  0.3838034504643488  0.1340676037659421  0.4786399219477673
  0.5093881867522896  0.2580157698441852  0.4828072817922120
  0.8550099846551689  0.0479811074169660  0.4176058984346369
  0.8976346610307004  0.0077861569411510  0.4164572400244069
  0.8412587126723281  0.1765467572369488  0.3836537673463738
  0.8813175195681637  0.1336978900081078  0.3879598816104419
  0.9477568847590945  0.8168997151411759  0.4178739241126692
  0.9878553602781537  0.8997517399820154  0.4164194547039486
  0.8194931889879129  0.6746259021564072  0.3840217479346748
  0.8621537769712688  0.7575393553954157  0.3887149812012538
  0.1791846335016416  0.1409878398379334  0.4178520286301435
  0.0962923520856123  0.0981472887595061  0.4163461673695465
  0.3213716035555194  0.1537415329164915  0.3843464512826245
  0.2384082789507858  0.1138582409687885  0.3889927532433148
  0.8027824275242494  0.3160415486403139  0.3760700607570513
  0.8650818405270186  0.5447454155932121  0.4096530931830387
  0.8844685410231321  0.4848956994099041  0.4047443559177850
  0.6807619673552594  0.4951253777630598  0.3759522880339432
  0.4515101926304439  0.3297055328001406  0.4093827723078931
  0.5116500872543526  0.4089169831029054  0.4038978714293719
  0.5013738705644286  0.1959093964957006  0.3759007601206292
  0.6666545853231725  0.1319395684974438  0.4095827430785022
  0.5874538494088384  0.1128805594287456  0.4040392583332348
  0.8168579655856405  0.1567217021275340  0.5957680343790059
  0.9860895580965874  0.0970687518382434  0.5677986481423574
  0.9435199097963576  0.1371219606742144  0.5691148495185274
  0.8396700143995304  0.6696937672765202  0.5959213807305161
  0.8991561477999710  0.8988939260742512  0.5687129651163687
  0.8592059603307334  0.8162494458528897  0.5703601892194001
  0.3264345164692273  0.1804519535720814  0.5957378375167650
  0.0970614814134123  0.0102894511985667  0.5686350993304359
  0.1797600454014301  0.0531241603154555  0.5703784568322661
  0.8018744222187308  0.4223050967876247  0.5775782616620475
  0.7820544911807232  0.4818939344682249  0.5818058601521159
  0.8533897358003983  0.3287493846306191  0.5767715271271712
  0.8705696629729616  0.4074904699326112  0.5795866801792258
  0.5736301480887036  0.3895621877387185  0.5779536865422230
  0.5138037378953300  0.3101468882721150  0.5826898051691956
  0.6674992612588611  0.5351493446084632  0.5749241336060962
  0.5886538011607598  0.4735828779607303  0.5779642261265678
  0.6070514836342440  0.1947192916151508  0.5775556283045731
  0.6864665731022939  0.2143326278477602  0.5823288783213840
  0.4610279420441330  0.1421209386171398  0.5745817033140952
  0.5227309711698709  0.1251266181670090  0.5777462748685025
  0.9700460485131686  0.0251569664616937  0.4919925945691972
  0.9473237335747484  0.9782491921756886  0.4921229536871650
  0.9707552806639512  0.9547964022732671  0.4921794345395298
  0.0176834712978859  0.9790234191661540  0.4921474738769049
  0.0411779244766066  0.0259260880967673  0.4920912111911875
  0.0169688606193361  0.0485997362664392  0.4919965194656797
  0.8034924844416764  0.2663842523610356  0.4809777236471504
  0.7566938887812924  0.2431364430801679  0.4849832075987806
  0.7318967979020243  0.1964073101259984  0.4904951976754361
  0.7549655898812730  0.1726440008522090  0.4911815864238562
  0.8018445034175485  0.1953447019682955  0.4872315584299045
  0.8260773369988286  0.2421927002551456  0.4822800944784476
  0.7301511550364239  0.5466173785506143  0.4802132153209442
  0.7535026268171023  0.5232079583708753  0.4841349280444618
  0.8002371756956634  0.5452941365890851  0.4900349799277635
  0.8239161415419858  0.5921507428004702  0.4910985806648966
  0.8011125542567541  0.6161952664559465  0.4871543664995386
  0.7542580453851357  0.5934113766959470  0.4819158295307133
  0.4495428216715780  0.1933290526548817  0.4800874914560609
  0.4728898947504518  0.2400979587198506  0.4843316830736910
  0.4507258879738032  0.2646147820867881  0.4904505315169345
  0.4038640097230655  0.2413135260574464  0.4915453356755748
  0.3798690524409096  0.1944611111752153  0.4872565650646905
  0.4027193481090166  0.1705068782287782  0.4816764435493894
  0.8443203066028957  0.1626301520822011  0.4310222874398875
  0.8663600038355170  0.1381275088687701  0.4332656347209181
  0.8839044185262424  0.0588626088039490  0.4503964335965946
  0.9076476969698959  0.0360571057658916  0.4502224305429721
  0.8334581016134877  0.6915307738426293  0.4314313592373082
  0.8578335598930309  0.7380903382769830  0.4339101925781819
  0.9369612538907859  0.8349025668357797  0.4508038207946754
  0.9597270701312581  0.8814715393233143  0.4504535695092997
  0.3044858001742270  0.1511795370151034  0.4316371884502885
  0.2579132890782532  0.1292306942245744  0.4340693311471711
  0.1611484918759487  0.1121869545437235  0.4507929618651261
  0.1145590787739508  0.0883251074087141  0.4504076702597146
  0.8252957977958317  0.3159844825322011  0.4772729557941204
  0.8445315685477084  0.4064824846000121  0.4815141301667936
  0.8277253625429992  0.3798724004924381  0.4239111221066167
  0.8181930192029938  0.3357003018342368  0.4209662441551600
  0.8434993399094779  0.4486330057899153  0.4897411388681903
  0.8209675869145840  0.5167215980003661  0.4947224570948521
  0.8517796774523134  0.5183704384239078  0.4473801590129938
  0.8626083259757635  0.4844871970457518  0.4445128028277026
  0.6805510623228344  0.5187331694256159  0.4763440432642057
  0.5899233016458254  0.4475530782707935  0.4808138369493946
  0.6167213287663245  0.4567547708181294  0.4235265192267477
  0.6609637889253079  0.4913306762189507  0.4205085382875851
  0.5476234157513105  0.4044881368360222  0.4894311511024085
  0.4792711845370690  0.3139491839911983  0.4950713360031429
  0.4778123654842190  0.3429326978762859  0.4472388629266533
  0.5118450488663200  0.3876047853724742  0.4440443867911910
  0.4775657313313815  0.1718002593502064  0.4761445971079681
  0.5489099707695217  0.1526687490534755  0.4807371551502442
  0.5397862652189644  0.1703557284338473  0.4235180340308560
  0.5051286910769974  0.1798682655862294  0.4204258909729646
  0.5920003350456184  0.1535081352946222  0.4893345052582205
  0.6825606719047528  0.1757503311395041  0.4949641872494510
  0.6534943445822279  0.1451549419958837  0.4472982453354888
  0.6088147582517109  0.1344952450132695  0.4440913956956507
  0.8258632601567228  0.1696452974411358  0.4891241456039097
  0.8709117430016633  0.1194265348779524  0.4930658801338055
  0.8521285322340262  0.1269685634172646  0.5504516422408940
  0.8303421912857090  0.1517398824358125  0.5493740544539278
  0.8961684937728194  0.0952091667082797  0.4935343032768671
  0.9448798237153255  0.0494502199985121  0.4921385193597203
  0.9575336719757672  0.0864084881635705  0.5343791216456637
  0.9333783591123108  0.1087585294450690  0.5354513120286697
  0.8266408593093928  0.6659331363999641  0.4893318371322337
  0.8765415434974386  0.7612875293895058  0.4937777344430287
  0.8690248365831863  0.7348378729546781  0.5510165896419537
  0.8444918574908797  0.6882463126464700  0.5496599190896987
  0.9007815230496590  0.8107936059847702  0.4942774546279907
  0.9464732899791528  0.9053165667791419  0.4925362729995868
  0.9097132502185588  0.8809963149099644  0.5351602278653758
  0.8874127784101447  0.8344749916619989  0.5364077206683717
  0.3301224762711357  0.1702784238728512  0.4894199047187655
  0.2347657971343295  0.1253337855545311  0.4937587000343200
  0.2612492175929120  0.1446457870727116  0.5508703376356863
  0.3078452585439209  0.1664399613206839  0.5495763840558752
  0.1852321707014752  0.1001412421128833  0.4942952607469095
  0.0906804468770375  0.0511823101364897  0.4924588530423861
  0.1149843047925785  0.0387726341664845  0.5351091500886369
  0.1615277221076212  0.0630711334856144  0.5364217897556145
  0.8465693355789128  0.3431936551008690  0.5329321537615073
  0.8559089191251701  0.3874325811434716  0.5347139677568506
  0.8164661339366361  0.4496389177510807  0.5414578564416104
  0.8050336210738180  0.4829000674728405  0.5434665413205337
  0.6531594302784640  0.5134095174819322  0.5315029951367833
  0.6088653420462578  0.4785221787883387  0.5334145972871767
  0.5463710569573479  0.3766829513800900  0.5416770994874724
  0.5129717354895647  0.3320012376972628  0.5440014819291363
  0.4828675798799438  0.1496888860731431  0.5312447055534548
  0.5178361091131976  0.1404418490708963  0.5332298655932064
  0.6198865324872003  0.1802498402196733  0.5414014585577860
  0.6645722251397217  0.1915527017230332  0.5437234574888166
 
  0.00000000E+00  0.00000000E+00  0.00000000E+00
  0.00000000E+00  0.00000000E+00  0.00000000E+00
  0.00000000E+00  0.00000000E+00  0.00000000E+00
  0.00000000E+00  0.00000000E+00  0.00000000E+00
  0.00000000E+00  0.00000000E+00  0.00000000E+00
  0.00000000E+00  0.00000000E+00  0.00000000E+00
  0.00000000E+00  0.00000000E+00  0.00000000E+00
  0.00000000E+00  0.00000000E+00  0.00000000E+00
  0.00000000E+00  0.00000000E+00  0.00000000E+00
  0.00000000E+00  0.00000000E+00  0.00000000E+00
  0.00000000E+00  0.00000000E+00  0.00000000E+00
  0.00000000E+00  0.00000000E+00  0.00000000E+00
  0.00000000E+00  0.00000000E+00  0.00000000E+00
  0.00000000E+00  0.00000000E+00  0.00000000E+00
  0.00000000E+00  0.00000000E+00  0.00000000E+00
  0.00000000E+00  0.00000000E+00  0.00000000E+00
  0.00000000E+00  0.00000000E+00  0.00000000E+00
  0.00000000E+00  0.00000000E+00  0.00000000E+00
  0.00000000E+00  0.00000000E+00  0.00000000E+00
  0.00000000E+00  0.00000000E+00  0.00000000E+00
  0.00000000E+00  0.00000000E+00  0.00000000E+00
  0.00000000E+00  0.00000000E+00  0.00000000E+00
  0.00000000E+00  0.00000000E+00  0.00000000E+00
  0.00000000E+00  0.00000000E+00  0.00000000E+00
  0.00000000E+00  0.00000000E+00  0.00000000E+00
  0.00000000E+00  0.00000000E+00  0.00000000E+00
  0.00000000E+00  0.00000000E+00  0.00000000E+00
  0.00000000E+00  0.00000000E+00  0.00000000E+00
  0.00000000E+00  0.00000000E+00  0.00000000E+00
  0.00000000E+00  0.00000000E+00  0.00000000E+00
  0.00000000E+00  0.00000000E+00  0.00000000E+00
  0.00000000E+00  0.00000000E+00  0.00000000E+00
  0.00000000E+00  0.00000000E+00  0.00000000E+00
  0.00000000E+00  0.00000000E+00  0.00000000E+00
  0.00000000E+00  0.00000000E+00  0.00000000E+00
  0.00000000E+00  0.00000000E+00  0.00000000E+00
  0.00000000E+00  0.00000000E+00  0.00000000E+00
  0.00000000E+00  0.00000000E+00  0.00000000E+00
  0.00000000E+00  0.00000000E+00  0.00000000E+00
  0.00000000E+00  0.00000000E+00  0.00000000E+00
  0.00000000E+00  0.00000000E+00  0.00000000E+00
  0.00000000E+00  0.00000000E+00  0.00000000E+00
  0.00000000E+00  0.00000000E+00  0.00000000E+00
  0.00000000E+00  0.00000000E+00  0.00000000E+00
  0.00000000E+00  0.00000000E+00  0.00000000E+00
  0.00000000E+00  0.00000000E+00  0.00000000E+00
  0.00000000E+00  0.00000000E+00  0.00000000E+00
  0.00000000E+00  0.00000000E+00  0.00000000E+00
  0.00000000E+00  0.00000000E+00  0.00000000E+00
  0.00000000E+00  0.00000000E+00  0.00000000E+00
  0.00000000E+00  0.00000000E+00  0.00000000E+00
  0.00000000E+00  0.00000000E+00  0.00000000E+00
  0.00000000E+00  0.00000000E+00  0.00000000E+00
  0.00000000E+00  0.00000000E+00  0.00000000E+00
  0.00000000E+00  0.00000000E+00  0.00000000E+00
  0.00000000E+00  0.00000000E+00  0.00000000E+00
  0.00000000E+00  0.00000000E+00  0.00000000E+00
  0.00000000E+00  0.00000000E+00  0.00000000E+00
  0.00000000E+00  0.00000000E+00  0.00000000E+00
  0.00000000E+00  0.00000000E+00  0.00000000E+00
  0.00000000E+00  0.00000000E+00  0.00000000E+00
  0.00000000E+00  0.00000000E+00  0.00000000E+00
  0.00000000E+00  0.00000000E+00  0.00000000E+00
  0.00000000E+00  0.00000000E+00  0.00000000E+00
  0.00000000E+00  0.00000000E+00  0.00000000E+00
  0.00000000E+00  0.00000000E+00  0.00000000E+00
  0.00000000E+00  0.00000000E+00  0.00000000E+00
  0.00000000E+00  0.00000000E+00  0.00000000E+00
  0.00000000E+00  0.00000000E+00  0.00000000E+00
  0.00000000E+00  0.00000000E+00  0.00000000E+00
  0.00000000E+00  0.00000000E+00  0.00000000E+00
  0.00000000E+00  0.00000000E+00  0.00000000E+00
  0.00000000E+00  0.00000000E+00  0.00000000E+00
  0.00000000E+00  0.00000000E+00  0.00000000E+00
  0.00000000E+00  0.00000000E+00  0.00000000E+00
  0.00000000E+00  0.00000000E+00  0.00000000E+00
  0.00000000E+00  0.00000000E+00  0.00000000E+00
  0.00000000E+00  0.00000000E+00  0.00000000E+00
  0.00000000E+00  0.00000000E+00  0.00000000E+00
  0.00000000E+00  0.00000000E+00  0.00000000E+00
  0.00000000E+00  0.00000000E+00  0.00000000E+00
  0.00000000E+00  0.00000000E+00  0.00000000E+00
  0.00000000E+00  0.00000000E+00  0.00000000E+00
  0.00000000E+00  0.00000000E+00  0.00000000E+00
  0.00000000E+00  0.00000000E+00  0.00000000E+00
  0.00000000E+00  0.00000000E+00  0.00000000E+00
  0.00000000E+00  0.00000000E+00  0.00000000E+00
  0.00000000E+00  0.00000000E+00  0.00000000E+00
  0.00000000E+00  0.00000000E+00  0.00000000E+00
  0.00000000E+00  0.00000000E+00  0.00000000E+00
  0.00000000E+00  0.00000000E+00  0.00000000E+00
  0.00000000E+00  0.00000000E+00  0.00000000E+00
  0.00000000E+00  0.00000000E+00  0.00000000E+00
  0.00000000E+00  0.00000000E+00  0.00000000E+00
  0.00000000E+00  0.00000000E+00  0.00000000E+00
  0.00000000E+00  0.00000000E+00  0.00000000E+00
  0.00000000E+00  0.00000000E+00  0.00000000E+00
  0.00000000E+00  0.00000000E+00  0.00000000E+00
  0.00000000E+00  0.00000000E+00  0.00000000E+00
  0.00000000E+00  0.00000000E+00  0.00000000E+00
  0.00000000E+00  0.00000000E+00  0.00000000E+00
  0.00000000E+00  0.00000000E+00  0.00000000E+00
  0.00000000E+00  0.00000000E+00  0.00000000E+00
  0.00000000E+00  0.00000000E+00  0.00000000E+00
  0.00000000E+00  0.00000000E+00  0.00000000E+00
  0.00000000E+00  0.00000000E+00  0.00000000E+00
  0.00000000E+00  0.00000000E+00  0.00000000E+00
  0.00000000E+00  0.00000000E+00  0.00000000E+00
  0.00000000E+00  0.00000000E+00  0.00000000E+00
  0.00000000E+00  0.00000000E+00  0.00000000E+00
  0.00000000E+00  0.00000000E+00  0.00000000E+00
  0.00000000E+00  0.00000000E+00  0.00000000E+00
  0.00000000E+00  0.00000000E+00  0.00000000E+00
  0.00000000E+00  0.00000000E+00  0.00000000E+00
  0.00000000E+00  0.00000000E+00  0.00000000E+00
  0.00000000E+00  0.00000000E+00  0.00000000E+00
  0.00000000E+00  0.00000000E+00  0.00000000E+00
  0.00000000E+00  0.00000000E+00  0.00000000E+00
  0.00000000E+00  0.00000000E+00  0.00000000E+00
  0.00000000E+00  0.00000000E+00  0.00000000E+00
  0.00000000E+00  0.00000000E+00  0.00000000E+00
  0.00000000E+00  0.00000000E+00  0.00000000E+00
  0.00000000E+00  0.00000000E+00  0.00000000E+00
  0.00000000E+00  0.00000000E+00  0.00000000E+00
  0.00000000E+00  0.00000000E+00  0.00000000E+00
  0.00000000E+00  0.00000000E+00  0.00000000E+00
  0.00000000E+00  0.00000000E+00  0.00000000E+00
  0.00000000E+00  0.00000000E+00  0.00000000E+00
  0.00000000E+00  0.00000000E+00  0.00000000E+00
  0.00000000E+00  0.00000000E+00  0.00000000E+00
  0.00000000E+00  0.00000000E+00  0.00000000E+00
  0.00000000E+00  0.00000000E+00  0.00000000E+00
  0.00000000E+00  0.00000000E+00  0.00000000E+00
  0.00000000E+00  0.00000000E+00  0.00000000E+00
  0.00000000E+00  0.00000000E+00  0.00000000E+00
  0.00000000E+00  0.00000000E+00  0.00000000E+00
  0.00000000E+00  0.00000000E+00  0.00000000E+00
  0.00000000E+00  0.00000000E+00  0.00000000E+00
  0.00000000E+00  0.00000000E+00  0.00000000E+00
  0.00000000E+00  0.00000000E+00  0.00000000E+00
  0.00000000E+00  0.00000000E+00  0.00000000E+00
  0.00000000E+00  0.00000000E+00  0.00000000E+00
  0.00000000E+00  0.00000000E+00  0.00000000E+00
  0.00000000E+00  0.00000000E+00  0.00000000E+00
  0.00000000E+00  0.00000000E+00  0.00000000E+00
  0.00000000E+00  0.00000000E+00  0.00000000E+00
  0.00000000E+00  0.00000000E+00  0.00000000E+00
  0.00000000E+00  0.00000000E+00  0.00000000E+00
  0.00000000E+00  0.00000000E+00  0.00000000E+00
  0.00000000E+00  0.00000000E+00  0.00000000E+00
  0.00000000E+00  0.00000000E+00  0.00000000E+00
  0.00000000E+00  0.00000000E+00  0.00000000E+00
  0.00000000E+00  0.00000000E+00  0.00000000E+00
  0.00000000E+00  0.00000000E+00  0.00000000E+00
  0.00000000E+00  0.00000000E+00  0.00000000E+00
  0.00000000E+00  0.00000000E+00  0.00000000E+00
  0.00000000E+00  0.00000000E+00  0.00000000E+00
  0.00000000E+00  0.00000000E+00  0.00000000E+00
  0.00000000E+00  0.00000000E+00  0.00000000E+00
  0.00000000E+00  0.00000000E+00  0.00000000E+00
  0.00000000E+00  0.00000000E+00  0.00000000E+00
  0.00000000E+00  0.00000000E+00  0.00000000E+00
  0.00000000E+00  0.00000000E+00  0.00000000E+00
  0.00000000E+00  0.00000000E+00  0.00000000E+00
  0.00000000E+00  0.00000000E+00  0.00000000E+00
  0.00000000E+00  0.00000000E+00  0.00000000E+00
  0.00000000E+00  0.00000000E+00  0.00000000E+00
  0.00000000E+00  0.00000000E+00  0.00000000E+00
