Primitive Cell                          
   1.00000000000000     
    21.9286683778614773    0.0160097455164503    0.0000000000000000
   -10.9504547039436044   18.9790246681970665    0.0000000000000000
     0.0000000000000000    0.0000000000000000   20.0000000000000000
   C    H    O    N 
    36    30     6    12
Direct
  0.3781766181692987  0.6512499829591931  0.5260511412203357
  0.3393682943293470  0.7294011454002955  0.5261503458251511
  0.4386822684279963  0.6359016400329836  0.5232053504049929
  0.3545652736559788  0.8052237229689823  0.5235369173746420
  0.1855119404419483  0.5520148887615619  0.5236828503721540
  0.6080834394343881  0.3441596897215504  0.4664145354398386
  0.6469127969632993  0.2659921047466440  0.4659806167275775
  0.5475073258752516  0.3594177545024380  0.4694015818074533
  0.6315931908715129  0.1901096176018982  0.4691125768236333
  0.8006636889070933  0.4433811726845036  0.4695154657712877
  0.4567204987027793  0.9248340543854567  0.5038167286098911
  0.5539939543040120  0.0406011211086437  0.5369255474988606
  0.5165786090453324  0.9672684435802097  0.5422367429726549
  0.6148051024124399  0.0838048577215460  0.5827261775587971
  0.4560209227305805  0.5336505017812243  0.5030530347636955
  0.4746787457143213  0.4364851672169721  0.5365186323347402
  0.4385028753420457  0.4737067121143070  0.5414909364063334
  0.4570357854026241  0.3755481646235879  0.5822337324132789
  0.0659433998262458  0.5345217867662626  0.5037270190673198
  0.9502189125402154  0.5160817473167327  0.5369514860213300
  0.0235302664057357  0.5522092511513534  0.5419759505980934
  0.9070161499565970  0.5340515041773557  0.5824563469954782
  0.2613291821187147  0.6125113086200997  0.5261120915753921
  0.7249006700884308  0.3828879115724391  0.4665187708999596
  0.4318477757906791  0.9549963655096434  0.4564067367944347
  0.4692801440143057  0.0283295099252356  0.4510791242419785
  0.5292265411634105  0.0707427199129640  0.4893951923422435
  0.3709207863906983  0.9118865024598009  0.4107088811088246
  0.5111547017544495  0.5586172571547792  0.4558560172161989
  0.5472990202497670  0.5213563466478135  0.4508469717320835
  0.5298761819822104  0.4615097919283215  0.4894017134636997
  0.5289082783756953  0.6196052796792699  0.4101560397119925
  0.0357795033373876  0.4790540250577351  0.4568022681484223
  0.9624834997669822  0.4429065403442962  0.4518200118128775
  0.9200933814894157  0.4606770125841990  0.4899766164902957
  0.0788694659624767  0.4610633919558893  0.4111728573779416
  0.5333567018931618  0.9419816751625234  0.5792223625417492
  0.6121947742627327  0.1293073671381180  0.6025130594950525
  0.6148444920751643  0.0520847117457208  0.6251563939199087
  0.6652064683097549  0.1050902782058145  0.5560437032883954
  0.4556798953652219  0.8288785425553229  0.5163198139307426
  0.3962738301199664  0.4567694738839450  0.5782577395695370
  0.5050657899337097  0.3782546066529733  0.6022620463510577
  0.4249961691371169  0.3752721186746442  0.6244804219789728
  0.4282779506476047  0.3251720787052790  0.5553890800805092
  0.3612343285398296  0.5348628554872477  0.5153222661720775
  0.0487723226255028  0.5946298071680971  0.5785859487586222
  0.8615282190502711  0.4861454316157676  0.6023976421465349
  0.9386725945704981  0.5660101918348346  0.6247861011476274
  0.8857381823707087  0.5630597285786934  0.5554599365055353
  0.1618065238755264  0.6295118671333952  0.5156075951887615
  0.4524595918813645  0.0536109375782274  0.4141249093378363
  0.3734845905734048  0.8664513834176333  0.3906820352054154
  0.3205943988659996  0.8904985925587567  0.4375454436144679
  0.3707224539678080  0.9436959497976929  0.3684309105170271
  0.5305984705419249  0.1667871401040060  0.4762710754854922
  0.5894752172793147  0.5382353909127744  0.4140264246228753
  0.4809728638795079  0.6172844291236501  0.3903766767233918
  0.5580882948609514  0.6699750081710292  0.4369323029167731
  0.5606143234064191  0.6195908018535121  0.3677315396446872
  0.6247998282410521  0.4604970872893617  0.4773910151144776
  0.9372186060475016  0.4004369935167418  0.4152562415423304
  0.1242043266269661  0.5089792616354316  0.3910500668642598
  0.1003116617643869  0.4321524614164005  0.4380791415577363
  0.0470667926898543  0.4289887238977315  0.3689638525593892
  0.8242886044640443  0.3658672554257834  0.4774632338929266
  0.3076443282273260  0.8200083927099655  0.5299164071618563
  0.1706395111322507  0.4903367717140270  0.5306716213305336
  0.5003221105505631  0.6826826682854659  0.5299155441991772
  0.6783887966649829  0.1751133961099285  0.4630202692609657
  0.8154972090579804  0.5050766020084723  0.4627485390371433
  0.4859046896448760  0.3125748887847806  0.4626679689878159
  0.3123065212128111  0.5959756578427005  0.5262081051005936
  0.3946658819832436  0.7187466498009201  0.5263866460252729
  0.2719464844413579  0.6784660617373817  0.5261876434241515
  0.6739283705403807  0.3994331242457463  0.4667069548716967
  0.5916657429717347  0.2766820001306627  0.4656795336188537
  0.7143315381829609  0.3169503126953543  0.4659236132004807
  0.4243740174021511  0.8510337519971074  0.5124066975680037
  0.4146346354225585  0.5661227217639251  0.5114449130510792
  0.1397396838930902  0.5760495807693786  0.5119590156931793
  0.5617852343570391  0.1445208901795283  0.4805434519816103
  0.5714076436476034  0.4291599856113848  0.4813158361668570
  0.8463561408561304  0.4192973976959848  0.4815074943926874
 
  0.00000000E+00  0.00000000E+00  0.00000000E+00
  0.00000000E+00  0.00000000E+00  0.00000000E+00
  0.00000000E+00  0.00000000E+00  0.00000000E+00
  0.00000000E+00  0.00000000E+00  0.00000000E+00
  0.00000000E+00  0.00000000E+00  0.00000000E+00
  0.00000000E+00  0.00000000E+00  0.00000000E+00
  0.00000000E+00  0.00000000E+00  0.00000000E+00
  0.00000000E+00  0.00000000E+00  0.00000000E+00
  0.00000000E+00  0.00000000E+00  0.00000000E+00
  0.00000000E+00  0.00000000E+00  0.00000000E+00
  0.00000000E+00  0.00000000E+00  0.00000000E+00
  0.00000000E+00  0.00000000E+00  0.00000000E+00
  0.00000000E+00  0.00000000E+00  0.00000000E+00
  0.00000000E+00  0.00000000E+00  0.00000000E+00
  0.00000000E+00  0.00000000E+00  0.00000000E+00
  0.00000000E+00  0.00000000E+00  0.00000000E+00
  0.00000000E+00  0.00000000E+00  0.00000000E+00
  0.00000000E+00  0.00000000E+00  0.00000000E+00
  0.00000000E+00  0.00000000E+00  0.00000000E+00
  0.00000000E+00  0.00000000E+00  0.00000000E+00
  0.00000000E+00  0.00000000E+00  0.00000000E+00
  0.00000000E+00  0.00000000E+00  0.00000000E+00
  0.00000000E+00  0.00000000E+00  0.00000000E+00
  0.00000000E+00  0.00000000E+00  0.00000000E+00
  0.00000000E+00  0.00000000E+00  0.00000000E+00
  0.00000000E+00  0.00000000E+00  0.00000000E+00
  0.00000000E+00  0.00000000E+00  0.00000000E+00
  0.00000000E+00  0.00000000E+00  0.00000000E+00
  0.00000000E+00  0.00000000E+00  0.00000000E+00
  0.00000000E+00  0.00000000E+00  0.00000000E+00
  0.00000000E+00  0.00000000E+00  0.00000000E+00
  0.00000000E+00  0.00000000E+00  0.00000000E+00
  0.00000000E+00  0.00000000E+00  0.00000000E+00
  0.00000000E+00  0.00000000E+00  0.00000000E+00
  0.00000000E+00  0.00000000E+00  0.00000000E+00
  0.00000000E+00  0.00000000E+00  0.00000000E+00
  0.00000000E+00  0.00000000E+00  0.00000000E+00
  0.00000000E+00  0.00000000E+00  0.00000000E+00
  0.00000000E+00  0.00000000E+00  0.00000000E+00
  0.00000000E+00  0.00000000E+00  0.00000000E+00
  0.00000000E+00  0.00000000E+00  0.00000000E+00
  0.00000000E+00  0.00000000E+00  0.00000000E+00
  0.00000000E+00  0.00000000E+00  0.00000000E+00
  0.00000000E+00  0.00000000E+00  0.00000000E+00
  0.00000000E+00  0.00000000E+00  0.00000000E+00
  0.00000000E+00  0.00000000E+00  0.00000000E+00
  0.00000000E+00  0.00000000E+00  0.00000000E+00
  0.00000000E+00  0.00000000E+00  0.00000000E+00
  0.00000000E+00  0.00000000E+00  0.00000000E+00
  0.00000000E+00  0.00000000E+00  0.00000000E+00
  0.00000000E+00  0.00000000E+00  0.00000000E+00
  0.00000000E+00  0.00000000E+00  0.00000000E+00
  0.00000000E+00  0.00000000E+00  0.00000000E+00
  0.00000000E+00  0.00000000E+00  0.00000000E+00
  0.00000000E+00  0.00000000E+00  0.00000000E+00
  0.00000000E+00  0.00000000E+00  0.00000000E+00
  0.00000000E+00  0.00000000E+00  0.00000000E+00
  0.00000000E+00  0.00000000E+00  0.00000000E+00
  0.00000000E+00  0.00000000E+00  0.00000000E+00
  0.00000000E+00  0.00000000E+00  0.00000000E+00
  0.00000000E+00  0.00000000E+00  0.00000000E+00
  0.00000000E+00  0.00000000E+00  0.00000000E+00
  0.00000000E+00  0.00000000E+00  0.00000000E+00
  0.00000000E+00  0.00000000E+00  0.00000000E+00
  0.00000000E+00  0.00000000E+00  0.00000000E+00
  0.00000000E+00  0.00000000E+00  0.00000000E+00
  0.00000000E+00  0.00000000E+00  0.00000000E+00
  0.00000000E+00  0.00000000E+00  0.00000000E+00
  0.00000000E+00  0.00000000E+00  0.00000000E+00
  0.00000000E+00  0.00000000E+00  0.00000000E+00
  0.00000000E+00  0.00000000E+00  0.00000000E+00
  0.00000000E+00  0.00000000E+00  0.00000000E+00
  0.00000000E+00  0.00000000E+00  0.00000000E+00
  0.00000000E+00  0.00000000E+00  0.00000000E+00
  0.00000000E+00  0.00000000E+00  0.00000000E+00
  0.00000000E+00  0.00000000E+00  0.00000000E+00
  0.00000000E+00  0.00000000E+00  0.00000000E+00
  0.00000000E+00  0.00000000E+00  0.00000000E+00
  0.00000000E+00  0.00000000E+00  0.00000000E+00
  0.00000000E+00  0.00000000E+00  0.00000000E+00
  0.00000000E+00  0.00000000E+00  0.00000000E+00
  0.00000000E+00  0.00000000E+00  0.00000000E+00
  0.00000000E+00  0.00000000E+00  0.00000000E+00
  0.00000000E+00  0.00000000E+00  0.00000000E+00
