Primitive Cell                          
   1.00000000000000     
    45.2299446300864005   -0.0143253462148336    0.0000000000000000
   -22.6272058583404423   39.2836698185845705    0.0000000000000000
     0.0000000000000000    0.0000000000000000   20.0000000000000000
   H    C    N 
    66    96    30
Direct
  0.9289814816313182  0.9182272291994096  0.5231904356249402
  0.0769844358124629  0.0096086467982062  0.5250629368138959
  0.9853892255479337  0.0658996731146999  0.5224386757090116
  0.4443483251103828  0.2937874943816823  0.4908914199378671
  0.4992429112283290  0.2043303073871812  0.4687592457787133
  0.3511145494885213  0.1436025806858865  0.4836538625991054
  0.8465191869820075  0.5518808648196014  0.4927502186902473
  0.7020203912605893  0.4969983737273225  0.4721013081951781
  0.7892137335906853  0.6448791319564364  0.4863655811747449
  0.7034318025137551  0.1515693098020066  0.4905456580307614
  0.7935338789598347  0.2957030051716032  0.4723856472416230
  0.8536393572146963  0.2077476510120704  0.4843146360456103
  0.1895557709472229  0.0895448640845444  0.5888321510307506
  0.1260384230690121  0.0592927584564151  0.5896124674283527
  0.2968923344244985  0.1880124921938275  0.5786607186981598
  0.2333743959718078  0.1533335230531634  0.5738861130648658
  0.8966380754597196  0.8062346821772977  0.5888703872458123
  0.9298514829272264  0.8696196381451955  0.5890987654288082
  0.8882990988933059  0.6989367775414266  0.5793900939678664
  0.9171883116306816  0.7623302018646640  0.5741953553100387
  0.9058198097644166  0.0984866610923731  0.5875438921288705
  0.9355989363207229  0.0648195863550640  0.5878831326835083
  0.8080123959219208  0.1087514931811882  0.5777378364278221
  0.8419737361098640  0.0792072032089379  0.5722907545995142
  0.5788397812527251  0.3936373069567338  0.6134389970160612
  0.5378690878662482  0.3314805593804522  0.6081658237802898
  0.6443901844718667  0.5098041586651689  0.6137848293631478
  0.5917622894373338  0.4731926938797173  0.6708981074430937
  0.5600214471272267  0.4366157376021320  0.6374656324064532
  0.8129773210148556  0.4179443061679891  0.6155367259962716
  0.7914399058497352  0.4586817119624556  0.6105793082282815
  0.8636919208291047  0.3523154019777124  0.6146948875407574
  0.8791459402311261  0.4043779428518448  0.6727402568820224
  0.8742253963866062  0.4361920808248243  0.6399883049764554
  0.6027715400176632  0.1854580818085267  0.6124081264376358
  0.6651354572313366  0.2069446007721254  0.6078044492204171
  0.4865433164782615  0.1346621040779610  0.6122546744278878
  0.5233034658972073  0.1189579472256597  0.6698994461931420
  0.5600434746549823  0.1238959457190560  0.6367902948815356
  0.2406988517200048  0.0985889563260685  0.4044848080337786
  0.3037723499699965  0.1321764845403948  0.4109058615415435
  0.1270596906024934  0.0873989920036564  0.3836163469741223
  0.1810006186439921  0.1230211568226593  0.3325237377823029
  0.2189249067523704  0.1358344332498262  0.3710000257409902
  0.8546176835246726  0.7549537128805852  0.4054429278975960
  0.8249734294722515  0.6920091657425402  0.4124622420800890
  0.9575354357075696  0.8680826320229684  0.3836662788285423
  0.9395895984619642  0.8140107614911258  0.3334757016565248
  0.9143616596176756  0.7763132360953833  0.3723267745675969
  0.8977182604895901  0.1415400349424232  0.4039360659720899
  0.8649276931117953  0.1717860527630890  0.4111329633666045
  0.9075072539620805  0.0384799880275537  0.3816292437303730
  0.8719442588045041  0.0571083814093782  0.3309693266746976
  0.8595083271100421  0.0824484584168985  0.3697981301842930
  0.5951154376812937  0.4350011113322836  0.4158675560182559
  0.6509123044720013  0.4884992593010367  0.4062167554744320
  0.4907048060311396  0.3466159059451428  0.4344582269330672
  0.5327837116625105  0.4083814512715023  0.4372913408180281
  0.8384958020690263  0.4022610669496061  0.4173469345048346
  0.8363976544926217  0.3466484722711698  0.4069567269467669
  0.8533352738067421  0.5057956075945711  0.4364764099992939
  0.8734691842988340  0.4640206360859622  0.4391155111385316
  0.5615486431191528  0.1597092760660104  0.4145490151751048
  0.5078442443988394  0.1617242684299427  0.4043691660291202
  0.6506863912867047  0.1448369176606832  0.4343375515961156
  0.5887054858038923  0.1247829280176163  0.4365648637531052
  0.0303632537289644  0.0119372817620231  0.5082865363458282
  0.9780298701618477  0.9647852242095780  0.5077999230514010
  0.9830816195436896  0.0170119466295162  0.5068620869458300
  0.9682443949258257  0.0395961513426499  0.5052914660093393
  0.0678232443150293  0.0267059424624634  0.5074733984079529
  0.9554151995570948  0.9274092587627507  0.5064898275546952
  0.4493789920605593  0.1978939059063762  0.4872706672326643
  0.4446877944458620  0.2453550808171769  0.4927421093540971
  0.3972649889311342  0.1932321695975503  0.4914370389778924
  0.3598496232937123  0.1708706250777041  0.4909814089038633
  0.4736205443230901  0.1849994129210799  0.4860739824966274
  0.4609419010539000  0.2827664782931762  0.4995905746348370
  0.7453386326484051  0.5467838689262479  0.4903660875132587
  0.7976029680408274  0.5514258832984495  0.4953495083417110
  0.7927820141687860  0.5987730529917386  0.4940609992298874
  0.8078166289501283  0.6361266692517162  0.4932777361689205
  0.7081766208811118  0.5226145432164273  0.4889708375953887
  0.8189407231290105  0.5352761026019621  0.5018261345617034
  0.7997393853168688  0.2521750356610823  0.4897454726715864
  0.7519516349718813  0.2002001023459385  0.4938049199107226
  0.8040601148356430  0.2046074944922864  0.4922890748824642
  0.8262597445474071  0.1893482654569638  0.4914567352744967
  0.8128929491461960  0.2892896287063706  0.4890508740898269
  0.7144296631088451  0.1790787947283405  0.4998672816168721
  0.1756963479195051  0.0884049048898916  0.5433099244073389
  0.1402247883889771  0.0711561136510497  0.5440177151056673
  0.3045088866534087  0.1618618095321693  0.4964468547000322
  0.2842049883141513  0.1678710428329282  0.5415945434067453
  0.2488640058761291  0.1484539809234420  0.5386590519239078
  0.9094827069154761  0.8199499815086000  0.5433526104161501
  0.9276581177746408  0.8553420378960794  0.5437340632107350
  0.8542296396927398  0.6913164817236961  0.4976440904216091
  0.8807319764046468  0.7115884199197353  0.5424060040561329
  0.8966931887358527  0.7468512691215210  0.5392201089352966
  0.9068439956760130  0.0858320872942144  0.5418666942739492
  0.9238385454527602  0.0673778292974845  0.5423304315677058
  0.8347168119764490  0.1427034646343870  0.4961514105503682
  0.8282220171278993  0.1161063916863299  0.5407636570651917
  0.8472388037699119  0.0997830521421434  0.5374477961591140
  0.6517521219279203  0.5014875658094269  0.5108735574241692
  0.6331108399773839  0.4932042205678400  0.5705241525413598
  0.6018236292142660  0.4627660975075116  0.5766786677415183
  0.5882887898187832  0.4407346428707086  0.5204313504383080
  0.5590457184473152  0.4056319434348623  0.5253077062310325
  0.5590836721556940  0.3835213810787863  0.5750314474714457
  0.5362848016331654  0.3488123324101764  0.5724318125118302
  0.8482865365033661  0.3453943545768610  0.5116527843678256
  0.8584465917909796  0.3637475358224620  0.5715658718631431
  0.8590937579000908  0.3948950774216797  0.5781798986117508
  0.8507066900696287  0.4086458844220857  0.5220886335169013
  0.8446333778226958  0.4377434812488659  0.5272350826726253
  0.8224825044715729  0.4376520143908138  0.5771335178035670
  0.8103504667364660  0.4603078793025333  0.5746811420046214
  0.4948583081682898  0.1499787097419301  0.5091680429879588
  0.5031871564582033  0.1398706475453153  0.5690508824734621
  0.5337334828995495  0.1391497545435172  0.5754719856629222
  0.5558439918264000  0.1475604374212125  0.5192931501948550
  0.5910972866245032  0.1536809706809805  0.5244429744426569
  0.6130865189797063  0.1759092870503238  0.5742400278094308
  0.6479109228520912  0.1880016595270249  0.5719816773067237
  0.1227367369787942  0.0708464555532657  0.4854954366878488
  0.1411528086850566  0.0872500470946065  0.4278019878006489
  0.1768391131769960  0.1030837273515317  0.4260566441572422
  0.1946915969526302  0.1042388945341273  0.4855608825721234
  0.2323885004424824  0.1234166335059896  0.4889292275282244
  0.2528715779849904  0.1179527184683025  0.4432079334960264
  0.2883222893360227  0.1364935755913379  0.4472254017677244
  0.9449736067705814  0.8726423169084399  0.4852148583165956
  0.9431969521615713  0.8541282573732687  0.4278512611792209
  0.9234268657759799  0.8185154679712596  0.4264404158845494
  0.9065267460701634  0.8008666427938422  0.4859109685692928
  0.8879887028690874  0.7632525339285152  0.4895440587149693
  0.8618718587790610  0.7428066320785760  0.4441563526976182
  0.8448962691113593  0.7074378386280387  0.4484899266307139
  0.9240693554210040  0.0503294701222430  0.4836067931902335
  0.9077339810180405  0.0526095332220109  0.4260080844945762
  0.8920746136835405  0.0726162249224700  0.4245679772242568
  0.8911492083140899  0.0893190815356846  0.4841958230372541
  0.8723530816250360  0.1082115612322880  0.4878275279285944
  0.8783014155029747  0.1344474175915380  0.4426077084090068
  0.8601825900416031  0.1517684493612919  0.4470434878606895
  0.6057788562866264  0.4516282637363602  0.4592840339122688
  0.6372071311261820  0.4812678036190761  0.4536262634894896
  0.5112668826323130  0.3348843562204067  0.5218830741410017
  0.5095789358638996  0.3570487619728127  0.4745307203437932
  0.5334257036580112  0.3917141841286096  0.4759634631799727
  0.8443987046197989  0.3914673768373333  0.4606506648422339
  0.8427377581394992  0.3601441835211645  0.4545590131414627
  0.8211960922520802  0.4852209730124812  0.5240753210262525
  0.8450652283735494  0.4869845270949824  0.4765621952281549
  0.8561318972290834  0.4633043780274448  0.4778936397016338
  0.5448718119682070  0.1538429174853704  0.4579146650436101
  0.5151120128951092  0.1554732508499015  0.4519693076982136
  0.6620834866914578  0.1770380347509715  0.5216997736732480
  0.6400525673464443  0.1531587794198401  0.4742271102117357
  0.6052639491207188  0.1421280500300384  0.4753324544342519
  0.0120829773194373  0.9777633937833343  0.5093576303672265
  0.0173352616038471  0.0329404080953992  0.5078792179904283
  0.9620480870845682  0.9830372687698272  0.5073528894172199
  0.4653168489072144  0.2320387437502873  0.4867465985934558
  0.4104715989912791  0.2272864231843883  0.4933074990498838
  0.4153644643012910  0.1769645708340164  0.4899663080898691
  0.7636189287367827  0.5308511500286812  0.4898209496618620
  0.8136989197882443  0.5855641494562605  0.4956368142738725
  0.7583877553584628  0.5807349197947573  0.4930113319972804
  0.7655084125104636  0.2341623759775686  0.4892370098052581
  0.7698927774705098  0.1839379157957879  0.4934869382005900
  0.8205505156349631  0.2389337326021632  0.4917450908705518
  0.3398040939800993  0.1828301875111009  0.5005371602714348
  0.8398997231999275  0.6560981053691961  0.5020187183805120
  0.8140179276411885  0.1573304124336801  0.5006042041900329
  0.5853581462843636  0.4538291190533101  0.6382227800874603
  0.6854570392340449  0.5290494435638280  0.5116163744176845
  0.8662650194190675  0.4109341157784030  0.6400856094260448
  0.8420570582058602  0.3117087931121105  0.5120298739669877
  0.5427163243912219  0.1318816605116879  0.6372254745936061
  0.4672443736078904  0.1560926974752022  0.5096365334146213
  0.1940506830193769  0.1174755691023535  0.3667424301294986
  0.0872998281508401  0.0565533615536040  0.4839161569265471
  0.9208661082520280  0.8011261742822313  0.3675327885844482
  0.9660616251928502  0.9080054712138548  0.4835871328895536
  0.8776049768263334  0.0755641783189489  0.3654641753812840
  0.9382622633164246  0.0290981094105618  0.4819401091752837
  0.4922591514367198  0.2996129623142139  0.5177763729219436
  0.8046981676743528  0.5040644285542228  0.5201528584049697
  0.6974540239128899  0.1933880970627797  0.5181144051886122
 
  0.00000000E+00  0.00000000E+00  0.00000000E+00
  0.00000000E+00  0.00000000E+00  0.00000000E+00
  0.00000000E+00  0.00000000E+00  0.00000000E+00
  0.00000000E+00  0.00000000E+00  0.00000000E+00
  0.00000000E+00  0.00000000E+00  0.00000000E+00
  0.00000000E+00  0.00000000E+00  0.00000000E+00
  0.00000000E+00  0.00000000E+00  0.00000000E+00
  0.00000000E+00  0.00000000E+00  0.00000000E+00
  0.00000000E+00  0.00000000E+00  0.00000000E+00
  0.00000000E+00  0.00000000E+00  0.00000000E+00
  0.00000000E+00  0.00000000E+00  0.00000000E+00
  0.00000000E+00  0.00000000E+00  0.00000000E+00
  0.00000000E+00  0.00000000E+00  0.00000000E+00
  0.00000000E+00  0.00000000E+00  0.00000000E+00
  0.00000000E+00  0.00000000E+00  0.00000000E+00
  0.00000000E+00  0.00000000E+00  0.00000000E+00
  0.00000000E+00  0.00000000E+00  0.00000000E+00
  0.00000000E+00  0.00000000E+00  0.00000000E+00
  0.00000000E+00  0.00000000E+00  0.00000000E+00
  0.00000000E+00  0.00000000E+00  0.00000000E+00
  0.00000000E+00  0.00000000E+00  0.00000000E+00
  0.00000000E+00  0.00000000E+00  0.00000000E+00
  0.00000000E+00  0.00000000E+00  0.00000000E+00
  0.00000000E+00  0.00000000E+00  0.00000000E+00
  0.00000000E+00  0.00000000E+00  0.00000000E+00
  0.00000000E+00  0.00000000E+00  0.00000000E+00
  0.00000000E+00  0.00000000E+00  0.00000000E+00
  0.00000000E+00  0.00000000E+00  0.00000000E+00
  0.00000000E+00  0.00000000E+00  0.00000000E+00
  0.00000000E+00  0.00000000E+00  0.00000000E+00
  0.00000000E+00  0.00000000E+00  0.00000000E+00
  0.00000000E+00  0.00000000E+00  0.00000000E+00
  0.00000000E+00  0.00000000E+00  0.00000000E+00
  0.00000000E+00  0.00000000E+00  0.00000000E+00
  0.00000000E+00  0.00000000E+00  0.00000000E+00
  0.00000000E+00  0.00000000E+00  0.00000000E+00
  0.00000000E+00  0.00000000E+00  0.00000000E+00
  0.00000000E+00  0.00000000E+00  0.00000000E+00
  0.00000000E+00  0.00000000E+00  0.00000000E+00
  0.00000000E+00  0.00000000E+00  0.00000000E+00
  0.00000000E+00  0.00000000E+00  0.00000000E+00
  0.00000000E+00  0.00000000E+00  0.00000000E+00
  0.00000000E+00  0.00000000E+00  0.00000000E+00
  0.00000000E+00  0.00000000E+00  0.00000000E+00
  0.00000000E+00  0.00000000E+00  0.00000000E+00
  0.00000000E+00  0.00000000E+00  0.00000000E+00
  0.00000000E+00  0.00000000E+00  0.00000000E+00
  0.00000000E+00  0.00000000E+00  0.00000000E+00
  0.00000000E+00  0.00000000E+00  0.00000000E+00
  0.00000000E+00  0.00000000E+00  0.00000000E+00
  0.00000000E+00  0.00000000E+00  0.00000000E+00
  0.00000000E+00  0.00000000E+00  0.00000000E+00
  0.00000000E+00  0.00000000E+00  0.00000000E+00
  0.00000000E+00  0.00000000E+00  0.00000000E+00
  0.00000000E+00  0.00000000E+00  0.00000000E+00
  0.00000000E+00  0.00000000E+00  0.00000000E+00
  0.00000000E+00  0.00000000E+00  0.00000000E+00
  0.00000000E+00  0.00000000E+00  0.00000000E+00
  0.00000000E+00  0.00000000E+00  0.00000000E+00
  0.00000000E+00  0.00000000E+00  0.00000000E+00
  0.00000000E+00  0.00000000E+00  0.00000000E+00
  0.00000000E+00  0.00000000E+00  0.00000000E+00
  0.00000000E+00  0.00000000E+00  0.00000000E+00
  0.00000000E+00  0.00000000E+00  0.00000000E+00
  0.00000000E+00  0.00000000E+00  0.00000000E+00
  0.00000000E+00  0.00000000E+00  0.00000000E+00
  0.00000000E+00  0.00000000E+00  0.00000000E+00
  0.00000000E+00  0.00000000E+00  0.00000000E+00
  0.00000000E+00  0.00000000E+00  0.00000000E+00
  0.00000000E+00  0.00000000E+00  0.00000000E+00
  0.00000000E+00  0.00000000E+00  0.00000000E+00
  0.00000000E+00  0.00000000E+00  0.00000000E+00
  0.00000000E+00  0.00000000E+00  0.00000000E+00
  0.00000000E+00  0.00000000E+00  0.00000000E+00
  0.00000000E+00  0.00000000E+00  0.00000000E+00
  0.00000000E+00  0.00000000E+00  0.00000000E+00
  0.00000000E+00  0.00000000E+00  0.00000000E+00
  0.00000000E+00  0.00000000E+00  0.00000000E+00
  0.00000000E+00  0.00000000E+00  0.00000000E+00
  0.00000000E+00  0.00000000E+00  0.00000000E+00
  0.00000000E+00  0.00000000E+00  0.00000000E+00
  0.00000000E+00  0.00000000E+00  0.00000000E+00
  0.00000000E+00  0.00000000E+00  0.00000000E+00
  0.00000000E+00  0.00000000E+00  0.00000000E+00
  0.00000000E+00  0.00000000E+00  0.00000000E+00
  0.00000000E+00  0.00000000E+00  0.00000000E+00
  0.00000000E+00  0.00000000E+00  0.00000000E+00
  0.00000000E+00  0.00000000E+00  0.00000000E+00
  0.00000000E+00  0.00000000E+00  0.00000000E+00
  0.00000000E+00  0.00000000E+00  0.00000000E+00
  0.00000000E+00  0.00000000E+00  0.00000000E+00
  0.00000000E+00  0.00000000E+00  0.00000000E+00
  0.00000000E+00  0.00000000E+00  0.00000000E+00
  0.00000000E+00  0.00000000E+00  0.00000000E+00
  0.00000000E+00  0.00000000E+00  0.00000000E+00
  0.00000000E+00  0.00000000E+00  0.00000000E+00
  0.00000000E+00  0.00000000E+00  0.00000000E+00
  0.00000000E+00  0.00000000E+00  0.00000000E+00
  0.00000000E+00  0.00000000E+00  0.00000000E+00
  0.00000000E+00  0.00000000E+00  0.00000000E+00
  0.00000000E+00  0.00000000E+00  0.00000000E+00
  0.00000000E+00  0.00000000E+00  0.00000000E+00
  0.00000000E+00  0.00000000E+00  0.00000000E+00
  0.00000000E+00  0.00000000E+00  0.00000000E+00
  0.00000000E+00  0.00000000E+00  0.00000000E+00
  0.00000000E+00  0.00000000E+00  0.00000000E+00
  0.00000000E+00  0.00000000E+00  0.00000000E+00
  0.00000000E+00  0.00000000E+00  0.00000000E+00
  0.00000000E+00  0.00000000E+00  0.00000000E+00
  0.00000000E+00  0.00000000E+00  0.00000000E+00
  0.00000000E+00  0.00000000E+00  0.00000000E+00
  0.00000000E+00  0.00000000E+00  0.00000000E+00
  0.00000000E+00  0.00000000E+00  0.00000000E+00
  0.00000000E+00  0.00000000E+00  0.00000000E+00
  0.00000000E+00  0.00000000E+00  0.00000000E+00
  0.00000000E+00  0.00000000E+00  0.00000000E+00
  0.00000000E+00  0.00000000E+00  0.00000000E+00
  0.00000000E+00  0.00000000E+00  0.00000000E+00
  0.00000000E+00  0.00000000E+00  0.00000000E+00
  0.00000000E+00  0.00000000E+00  0.00000000E+00
  0.00000000E+00  0.00000000E+00  0.00000000E+00
  0.00000000E+00  0.00000000E+00  0.00000000E+00
  0.00000000E+00  0.00000000E+00  0.00000000E+00
  0.00000000E+00  0.00000000E+00  0.00000000E+00
  0.00000000E+00  0.00000000E+00  0.00000000E+00
  0.00000000E+00  0.00000000E+00  0.00000000E+00
  0.00000000E+00  0.00000000E+00  0.00000000E+00
  0.00000000E+00  0.00000000E+00  0.00000000E+00
  0.00000000E+00  0.00000000E+00  0.00000000E+00
  0.00000000E+00  0.00000000E+00  0.00000000E+00
  0.00000000E+00  0.00000000E+00  0.00000000E+00
  0.00000000E+00  0.00000000E+00  0.00000000E+00
  0.00000000E+00  0.00000000E+00  0.00000000E+00
  0.00000000E+00  0.00000000E+00  0.00000000E+00
  0.00000000E+00  0.00000000E+00  0.00000000E+00
  0.00000000E+00  0.00000000E+00  0.00000000E+00
  0.00000000E+00  0.00000000E+00  0.00000000E+00
  0.00000000E+00  0.00000000E+00  0.00000000E+00
  0.00000000E+00  0.00000000E+00  0.00000000E+00
  0.00000000E+00  0.00000000E+00  0.00000000E+00
  0.00000000E+00  0.00000000E+00  0.00000000E+00
  0.00000000E+00  0.00000000E+00  0.00000000E+00
  0.00000000E+00  0.00000000E+00  0.00000000E+00
  0.00000000E+00  0.00000000E+00  0.00000000E+00
  0.00000000E+00  0.00000000E+00  0.00000000E+00
  0.00000000E+00  0.00000000E+00  0.00000000E+00
  0.00000000E+00  0.00000000E+00  0.00000000E+00
  0.00000000E+00  0.00000000E+00  0.00000000E+00
  0.00000000E+00  0.00000000E+00  0.00000000E+00
  0.00000000E+00  0.00000000E+00  0.00000000E+00
  0.00000000E+00  0.00000000E+00  0.00000000E+00
  0.00000000E+00  0.00000000E+00  0.00000000E+00
  0.00000000E+00  0.00000000E+00  0.00000000E+00
  0.00000000E+00  0.00000000E+00  0.00000000E+00
  0.00000000E+00  0.00000000E+00  0.00000000E+00
  0.00000000E+00  0.00000000E+00  0.00000000E+00
  0.00000000E+00  0.00000000E+00  0.00000000E+00
  0.00000000E+00  0.00000000E+00  0.00000000E+00
  0.00000000E+00  0.00000000E+00  0.00000000E+00
  0.00000000E+00  0.00000000E+00  0.00000000E+00
  0.00000000E+00  0.00000000E+00  0.00000000E+00
  0.00000000E+00  0.00000000E+00  0.00000000E+00
  0.00000000E+00  0.00000000E+00  0.00000000E+00
  0.00000000E+00  0.00000000E+00  0.00000000E+00
  0.00000000E+00  0.00000000E+00  0.00000000E+00
  0.00000000E+00  0.00000000E+00  0.00000000E+00
  0.00000000E+00  0.00000000E+00  0.00000000E+00
  0.00000000E+00  0.00000000E+00  0.00000000E+00
  0.00000000E+00  0.00000000E+00  0.00000000E+00
  0.00000000E+00  0.00000000E+00  0.00000000E+00
  0.00000000E+00  0.00000000E+00  0.00000000E+00
  0.00000000E+00  0.00000000E+00  0.00000000E+00
  0.00000000E+00  0.00000000E+00  0.00000000E+00
  0.00000000E+00  0.00000000E+00  0.00000000E+00
  0.00000000E+00  0.00000000E+00  0.00000000E+00
  0.00000000E+00  0.00000000E+00  0.00000000E+00
  0.00000000E+00  0.00000000E+00  0.00000000E+00
  0.00000000E+00  0.00000000E+00  0.00000000E+00
  0.00000000E+00  0.00000000E+00  0.00000000E+00
  0.00000000E+00  0.00000000E+00  0.00000000E+00
  0.00000000E+00  0.00000000E+00  0.00000000E+00
  0.00000000E+00  0.00000000E+00  0.00000000E+00
  0.00000000E+00  0.00000000E+00  0.00000000E+00
  0.00000000E+00  0.00000000E+00  0.00000000E+00
  0.00000000E+00  0.00000000E+00  0.00000000E+00
  0.00000000E+00  0.00000000E+00  0.00000000E+00
  0.00000000E+00  0.00000000E+00  0.00000000E+00
  0.00000000E+00  0.00000000E+00  0.00000000E+00
  0.00000000E+00  0.00000000E+00  0.00000000E+00
  0.00000000E+00  0.00000000E+00  0.00000000E+00
  0.00000000E+00  0.00000000E+00  0.00000000E+00
  0.00000000E+00  0.00000000E+00  0.00000000E+00
