Primitive Cell                          
   1.00000000000000     
    22.1927513177128901   -0.0035881219608017    0.0000000000000000
   -11.0994850920901484   19.2363090803285779    0.0000000000000000
     0.0000000000000000    0.0000000000000000   20.0000000000000000
   H    N    C 
    36     6    48
Direct
  0.0822658916809260  0.3867278308896545  0.4495338673285403
  0.0034418246746597  0.3724927451910887  0.4876244425998379
  0.0184960502882561  0.3957965901940668  0.4029249724242092
  0.1757386887228165  0.6713327490749990  0.5282981692836302
  0.1800542624866779  0.4937207856309485  0.4467804454729603
  0.4699877835560287  0.7377839323193385  0.4847318706406867
  0.2725570314692618  0.7297556056517891  0.4824761738684700
  0.2805877895562574  0.5404253816418674  0.4849248327038183
  0.5448192735618207  0.2692075516715420  0.4987567112026241
  0.7409798373669787  0.2732897002868881  0.4971210347214665
  0.7368659795241399  0.4651933091478853  0.4989970397176293
  0.6552375442035299  0.1767260861348419  0.5838520481538794
  0.5069389218365430  0.8344360860886937  0.5312053885729000
  0.5469895902676001  0.9979955827902458  0.6262682250914153
  0.6232560929958453  0.0152630919475243  0.5842547718154876
  0.6256488608608137  0.0776792446181744  0.6422534701428262
  0.5366331005600316  0.3569986532021474  0.5875838583363233
  0.3397577421263165  0.5031342252137279  0.5322468629640511
  0.4674810540569254  0.4670006385777157  0.6299153996714466
  0.4073595043891558  0.3894879282395394  0.5903859255867090
  0.4690211562694415  0.3889305166584407  0.6475253219261248
  0.8333097970615313  0.4734784761388013  0.5864027587345078
  0.0131089971472491  0.5431231721439715  0.6272364441828060
  0.9948081372543953  0.6029998764854980  0.5884592255650247
  0.9334085452311669  0.5410715905632557  0.6459156166902957
  0.3274587410799086  0.8300987546752268  0.4431463077656730
  0.5355196891392850  0.1726122686728786  0.4128963361930715
  0.3917790047204832  0.9911276909216724  0.3984634169391512
  0.3177490255122635  0.9270035471923492  0.4434345015400751
  0.3806388576808573  0.0061017666509287  0.4823985699825926
  0.5164276109174537  0.6835705528437970  0.4473834584664758
  0.6472965217734199  0.4727108368432482  0.4129626045310886
  0.6141335472543545  0.6202638897271342  0.4039353810599309
  0.6236376822054766  0.6932206100151461  0.4505412820772605
  0.6383042432172488  0.6288558432730582  0.4884040437220207
  0.8376552154639185  0.3629288102569248  0.4114067636467595
  0.0813814663003356  0.5829411178233954  0.5133080384734399
  0.5132534697782276  0.9287018421290369  0.5145287553193043
  0.4280986470713728  0.4970839225107824  0.5168959797439143
  0.5125048967149510  0.0773076663760577  0.4520658760883194
  0.5763142366538077  0.4968263986529422  0.4535824214075177
  0.9330063526838686  0.4342035178006114  0.4513797991093966
  0.0457718314618063  0.5157797253958094  0.4941950284842278
  0.0802466419684578  0.4805171346083270  0.4705495947442202
  0.0443560911927037  0.4047942376537392  0.4516605914304321
  0.1505420346767394  0.6179011355989488  0.5096912808809364
  0.1527029811116449  0.5194847149338884  0.4661194079111510
  0.1904849917160405  0.5894555881368930  0.4855658832929279
  0.2674260561471371  0.6302438124882954  0.4836473604480460
  0.3070991280032942  0.5969894168009802  0.4842946922857507
  0.3801200761372243  0.6348168315557103  0.4847788601183538
  0.4133827506547476  0.7076920390990153  0.4841757472203128
  0.3755304547263947  0.7428270695033703  0.4835055255617746
  0.3026018762626137  0.7032033891457417  0.4829344383590666
  0.7475160768860150  0.3736696022647408  0.4978264045112581
  0.7093691201619308  0.4084516579111721  0.4983361288303456
  0.6364055549633676  0.3713635818728278  0.4985816473518412
  0.6016023887872919  0.2984739759993218  0.4981581814873266
  0.6387220665580315  0.2626372243667632  0.4975899937124169
  0.7116796553818077  0.3007624463111753  0.4973002299772133
  0.4792316496674687  0.8596210617539199  0.5110918663117943
  0.5257927701255269  0.0415140070125091  0.4986157732339720
  0.5781547484782052  0.0757230307983932  0.5482069686545188
  0.6154008664987956  0.1483902297645656  0.5459869045919348
  0.6012239562122517  0.1858039558446976  0.4983529081907463
  0.5944141045086582  0.0398963504363508  0.6033561562896637
  0.3929804905080942  0.5310712524312322  0.5129435025765474
  0.5286892204692535  0.4846925735675782  0.5013960961143695
  0.5118628372150766  0.4334831213103101  0.5517861316576997
  0.5470435763986288  0.3959814656195846  0.5491125220310238
  0.5971396466475767  0.4089445575131592  0.5001285878116164
  0.4613545653000699  0.4189123409154334  0.6080762100575186
  0.9686213619515556  0.4818951331455565  0.4990521419560849
  0.9344355087339906  0.4985455342709670  0.5498083092468988
  0.8617120677813759  0.4631780209721583  0.5476406585258431
  0.8244000769370672  0.4130220478619862  0.4987952953716928
  0.9707329356693890  0.5490220859238661  0.6060099161848314
  0.4115631633499746  0.8196854369132325  0.4852852215593444
  0.4823861149750428  0.9644547635932526  0.4936719927122439
  0.4132371108760893  0.9298917687175958  0.4682171919459392
  0.3799713304918910  0.8574689794363763  0.4639678371481821
  0.5484261036286284  0.1465148038937087  0.4521009378159349
  0.3735321029239458  0.9652722670084302  0.4470289021261564
  0.4210636818116953  0.5989002952027889  0.4875661999321323
  0.4949940892574460  0.5281450254753466  0.4968464856683497
  0.5300259805747984  0.5975354515481399  0.4723335303107916
  0.4909105156024509  0.6308266512193086  0.4675759538669837
  0.6094475226704219  0.4607377977991689  0.4531362760492001
  0.6056118344245576  0.6372895344770484  0.4527856818205152
  0.8637306241972595  0.4008464850587572  0.4514510901662092
 
  0.00000000E+00  0.00000000E+00  0.00000000E+00
  0.00000000E+00  0.00000000E+00  0.00000000E+00
  0.00000000E+00  0.00000000E+00  0.00000000E+00
  0.00000000E+00  0.00000000E+00  0.00000000E+00
  0.00000000E+00  0.00000000E+00  0.00000000E+00
  0.00000000E+00  0.00000000E+00  0.00000000E+00
  0.00000000E+00  0.00000000E+00  0.00000000E+00
  0.00000000E+00  0.00000000E+00  0.00000000E+00
  0.00000000E+00  0.00000000E+00  0.00000000E+00
  0.00000000E+00  0.00000000E+00  0.00000000E+00
  0.00000000E+00  0.00000000E+00  0.00000000E+00
  0.00000000E+00  0.00000000E+00  0.00000000E+00
  0.00000000E+00  0.00000000E+00  0.00000000E+00
  0.00000000E+00  0.00000000E+00  0.00000000E+00
  0.00000000E+00  0.00000000E+00  0.00000000E+00
  0.00000000E+00  0.00000000E+00  0.00000000E+00
  0.00000000E+00  0.00000000E+00  0.00000000E+00
  0.00000000E+00  0.00000000E+00  0.00000000E+00
  0.00000000E+00  0.00000000E+00  0.00000000E+00
  0.00000000E+00  0.00000000E+00  0.00000000E+00
  0.00000000E+00  0.00000000E+00  0.00000000E+00
  0.00000000E+00  0.00000000E+00  0.00000000E+00
  0.00000000E+00  0.00000000E+00  0.00000000E+00
  0.00000000E+00  0.00000000E+00  0.00000000E+00
  0.00000000E+00  0.00000000E+00  0.00000000E+00
  0.00000000E+00  0.00000000E+00  0.00000000E+00
  0.00000000E+00  0.00000000E+00  0.00000000E+00
  0.00000000E+00  0.00000000E+00  0.00000000E+00
  0.00000000E+00  0.00000000E+00  0.00000000E+00
  0.00000000E+00  0.00000000E+00  0.00000000E+00
  0.00000000E+00  0.00000000E+00  0.00000000E+00
  0.00000000E+00  0.00000000E+00  0.00000000E+00
  0.00000000E+00  0.00000000E+00  0.00000000E+00
  0.00000000E+00  0.00000000E+00  0.00000000E+00
  0.00000000E+00  0.00000000E+00  0.00000000E+00
  0.00000000E+00  0.00000000E+00  0.00000000E+00
  0.00000000E+00  0.00000000E+00  0.00000000E+00
  0.00000000E+00  0.00000000E+00  0.00000000E+00
  0.00000000E+00  0.00000000E+00  0.00000000E+00
  0.00000000E+00  0.00000000E+00  0.00000000E+00
  0.00000000E+00  0.00000000E+00  0.00000000E+00
  0.00000000E+00  0.00000000E+00  0.00000000E+00
  0.00000000E+00  0.00000000E+00  0.00000000E+00
  0.00000000E+00  0.00000000E+00  0.00000000E+00
  0.00000000E+00  0.00000000E+00  0.00000000E+00
  0.00000000E+00  0.00000000E+00  0.00000000E+00
  0.00000000E+00  0.00000000E+00  0.00000000E+00
  0.00000000E+00  0.00000000E+00  0.00000000E+00
  0.00000000E+00  0.00000000E+00  0.00000000E+00
  0.00000000E+00  0.00000000E+00  0.00000000E+00
  0.00000000E+00  0.00000000E+00  0.00000000E+00
  0.00000000E+00  0.00000000E+00  0.00000000E+00
  0.00000000E+00  0.00000000E+00  0.00000000E+00
  0.00000000E+00  0.00000000E+00  0.00000000E+00
  0.00000000E+00  0.00000000E+00  0.00000000E+00
  0.00000000E+00  0.00000000E+00  0.00000000E+00
  0.00000000E+00  0.00000000E+00  0.00000000E+00
  0.00000000E+00  0.00000000E+00  0.00000000E+00
  0.00000000E+00  0.00000000E+00  0.00000000E+00
  0.00000000E+00  0.00000000E+00  0.00000000E+00
  0.00000000E+00  0.00000000E+00  0.00000000E+00
  0.00000000E+00  0.00000000E+00  0.00000000E+00
  0.00000000E+00  0.00000000E+00  0.00000000E+00
  0.00000000E+00  0.00000000E+00  0.00000000E+00
  0.00000000E+00  0.00000000E+00  0.00000000E+00
  0.00000000E+00  0.00000000E+00  0.00000000E+00
  0.00000000E+00  0.00000000E+00  0.00000000E+00
  0.00000000E+00  0.00000000E+00  0.00000000E+00
  0.00000000E+00  0.00000000E+00  0.00000000E+00
  0.00000000E+00  0.00000000E+00  0.00000000E+00
  0.00000000E+00  0.00000000E+00  0.00000000E+00
  0.00000000E+00  0.00000000E+00  0.00000000E+00
  0.00000000E+00  0.00000000E+00  0.00000000E+00
  0.00000000E+00  0.00000000E+00  0.00000000E+00
  0.00000000E+00  0.00000000E+00  0.00000000E+00
  0.00000000E+00  0.00000000E+00  0.00000000E+00
  0.00000000E+00  0.00000000E+00  0.00000000E+00
  0.00000000E+00  0.00000000E+00  0.00000000E+00
  0.00000000E+00  0.00000000E+00  0.00000000E+00
  0.00000000E+00  0.00000000E+00  0.00000000E+00
  0.00000000E+00  0.00000000E+00  0.00000000E+00
  0.00000000E+00  0.00000000E+00  0.00000000E+00
  0.00000000E+00  0.00000000E+00  0.00000000E+00
  0.00000000E+00  0.00000000E+00  0.00000000E+00
  0.00000000E+00  0.00000000E+00  0.00000000E+00
  0.00000000E+00  0.00000000E+00  0.00000000E+00
  0.00000000E+00  0.00000000E+00  0.00000000E+00
  0.00000000E+00  0.00000000E+00  0.00000000E+00
  0.00000000E+00  0.00000000E+00  0.00000000E+00
  0.00000000E+00  0.00000000E+00  0.00000000E+00
