Primitive Cell                          
   1.00000000000000     
    34.0046063533700149    0.0059004189790261    0.0000000000000000
   -16.9866973462259949   29.4362939658186207    0.0000000000000000
     0.0000000000000000    0.0000000000000000   20.0000000000000000
   C    N    H 
    84    24    36
Direct
  0.8434508342749822  0.1563924466423003  0.4364870880600762
  0.8776650382039932  0.1214611693167242  0.4886113643851075
  0.9021694734086410  0.0970362037720776  0.4883769304490357
  0.9370814651666635  0.0630361893119655  0.4354888813010689
  0.8432778801461964  0.6907844008357742  0.4367429205651874
  0.8771816727562936  0.7599333363229022  0.4888227458626631
  0.9016944400534541  0.8088537056927549  0.4884947528401753
  0.9368964105396671  0.8776845045983919  0.4354359677074555
  0.3076367235152233  0.1552043752098129  0.4373337765322063
  0.2384118987743022  0.1207216276419700  0.4890396862599005
  0.1895337175571186  0.0961952584512886  0.4883462353517700
  0.1209085006523480  0.0614116331207697  0.4348275873432712
  0.8403874740738360  0.4614205130277469  0.4326638086213919
  0.8302254684973391  0.4968360134993191  0.4302593573673761
  0.8267341589437933  0.3148427235663576  0.4895363899693805
  0.8302873823186090  0.3374148671631616  0.4302242270829737
  0.8404069541197572  0.3829756740507477  0.4326493891799430
  0.5362641738673233  0.3830742358108665  0.4335406588581705
  0.5009883349953483  0.3374633030676435  0.4309895958631813
  0.6826897948758841  0.5159569481348356  0.4905755348919243
  0.6600145671014985  0.4971424135898346  0.4312484855341836
  0.6145078922352667  0.4616534758052282  0.4336718024304531
  0.6148188435776021  0.1564083936900573  0.4336546055162742
  0.6603921165398461  0.1666593011718120  0.4312208954357573
  0.4822898015464432  0.1706746174875917  0.4903444570554427
  0.5013023678128761  0.1670334530755611  0.4310789371908612
  0.5365663123340738  0.1566776863569004  0.4335700341640631
  0.8266271713221158  0.5158106414961026  0.4895897409203087
  0.4821010300359490  0.3147280958177561  0.4902474120180003
  0.6830396284734093  0.1704476367483565  0.4905377818618959
  0.9740019093267591  0.0247017674360919  0.4961272844705888
  0.9738332406846624  0.9530005730798479  0.4959366855586325
  0.9503488646345204  0.9771096211960426  0.4964310215220067
  0.9488472512625279  0.0500588184732109  0.4966127755781002
  0.9485162436253702  0.9024893473800972  0.4964979681071355
  0.0213940783138113  0.9769071283146573  0.4950369899607594
  0.0454685204010161  0.0244959247305090  0.4951617645119200
  0.0215630838354173  0.0481832753029821  0.4953623384171237
  0.8051425634346927  0.2644882341466825  0.4916606055305550
  0.7576031746524023  0.2399600911884292  0.4897325817609257
  0.7334080888620562  0.1924024920055061  0.4924139441041717
  0.7574915504392123  0.1690303330874485  0.4963993002652600
  0.8051503936170619  0.1930689653858906  0.4972508515524083
  0.8288581530182739  0.2407394015599849  0.4954452812483296
  0.7330600970662147  0.5445889613128969  0.4924601249568497
  0.7573989520374198  0.5213671552982930  0.4898309094505819
  0.8049416302379200  0.5444911220153585  0.4917331240101532
  0.8285331309939963  0.5919514422008447  0.4955395049011955
  0.8046985598105749  0.6157947936292345  0.4974192551452390
  0.7570302645257811  0.5920517887239853  0.4964758258909541
  0.4536693020035329  0.1924386216666178  0.4923279362409190
  0.4767794908693475  0.2399943346147424  0.4896774509887791
  0.4535779798165933  0.2643556634379536  0.4922441349310702
  0.4061673994711370  0.2404404302774026  0.4966631677091655
  0.3824240743253782  0.1927627765611177  0.4982190411410841
  0.4062438521159493  0.1688954544144465  0.4966846114293020
  0.8305562160623339  0.1679571470324461  0.4978936053140899
  0.8300331605582087  0.6663212551354647  0.4981319725106772
  0.3319235540979832  0.1675105341513401  0.4988869764533916
  0.8666476531307836  0.1312868210930773  0.5527557232878451
  0.8425169863136475  0.1549922512133861  0.5565452161324203
  0.9360153794644006  0.0618881798612279  0.5555383013853117
  0.9122140493909470  0.0859333015512362  0.5522999654685137
  0.8657877549747539  0.7391110486549408  0.5529475585603905
  0.8416805993360512  0.6912726161209903  0.5567604449681482
  0.9353895708744062  0.8779042185636499  0.5554905611866232
  0.9114716426875447  0.8300532286312290  0.5523648557870615
  0.2590400915397097  0.1313183816577563  0.5533273068953406
  0.3068487777881472  0.1552236529232829  0.5574052295893068
  0.0959466244139975  0.0496228407121535  0.4957364189417319
  0.1203449477967808  0.0623195655777593  0.5548924979702718
  0.1681620541116473  0.0860431248804687  0.5520766238495511
  0.8382339989522478  0.5014720906410517  0.5496554143926105
  0.8462864333402820  0.4463382666138145  0.4962077461269061
  0.8463069330423991  0.4039437450356971  0.4962022347382984
  0.8383291646109541  0.3407750287827653  0.5496142790758753
  0.4964031340752655  0.3405255014246933  0.5504455020494348
  0.5513825314795966  0.4038628014432462  0.4971842076954331
  0.5936875506658765  0.4463177610181930  0.4972439597763625
  0.6568605174141737  0.5013793264503619  0.5507186046523671
  0.6571237530208265  0.1587719230056734  0.5506273350626785
  0.5939150520192484  0.1506288164373544  0.4972180165185378
  0.5516031430267603  0.1507790971096270  0.4971625128474813
  0.4965465225449464  0.1590237851873937  0.5504527875962566
  0.8660058225289902  0.1340876896724623  0.4310973722444444
  0.9146736076575692  0.0855202036969018  0.4306414065585855
  0.8658645928584647  0.7356384439475221  0.4313608364825399
  0.9144301177715661  0.8327839507457497  0.4306953370924802
  0.2628291053515923  0.1327937669541939  0.4316938139496145
  0.1658017392914743  0.0837800888299114  0.4303671349938369
  0.8405608839401992  0.4033299257095067  0.3722536550318409
  0.8405587155230450  0.4412368278576295  0.3722582909711392
  0.5940910971132709  0.4416309041431745  0.3732049287031955
  0.5562944466158797  0.4036550608600251  0.3731399553219248
  0.5566337315220977  0.1562908375963445  0.3731409265818399
  0.5944459368803123  0.1561306800170854  0.3732110220061955
  0.9001183399764869  0.0972620905507497  0.6126684089164485
  0.8781770290583424  0.1190955679741066  0.6128677401263616
  0.8989620345692870  0.8066528044460028  0.6127500388458245
  0.8769214776480965  0.7628768886991040  0.6130240171786525
  0.1913409611196499  0.0979279218739535  0.6126249290969668
  0.2350969222469956  0.1196555931990844  0.6132542149013247
  0.8475224286738694  0.4680184886332910  0.5536750114983562
  0.8475768928916523  0.3835020003629452  0.5536630805593603
  0.5298255480127594  0.3832353362251695  0.5546291533581638
  0.6141944177950336  0.4678292590729214  0.5547581166007305
  0.6143836146312083  0.1494196638672562  0.5546894354057699
  0.5299677369040978  0.1497083017797749  0.5545881951809477
  0.7388739962063795  0.4843556382394922  0.4867306383579901
  0.5137507732304201  0.2585193685265281  0.4861328477912181
  0.9469174037042478  0.0540570998348855  0.3882602110374407
  0.9468883739654288  0.8964463308301660  0.3881701981216210
  0.9437071095523706  0.0532809554809361  0.6045416526341540
  0.9429710517946930  0.8942943081067938  0.6044249903626877
  0.0398568466152369  0.9582997501795489  0.4949356483722127
  0.0401576013622105  0.0852497355026500  0.4954253207191499
  0.9133031148798594  0.9586519088669121  0.4972848551943230
  0.7393068605945885  0.1319776763011049  0.4978604916313998
  0.8658980939003840  0.2591956794072985  0.4962355296880645
  0.7389774467991685  0.2583454944774743  0.4865702050037513
  0.8655771535053489  0.6106274732764021  0.4963046558559796
  0.7387548523703558  0.6108317257211553  0.4978850394598808
  0.3874380417395074  0.2587673661060208  0.4979593251216485
  0.3875515827259051  0.1318403528814471  0.4979827804054793
  0.8343021240971495  0.1663297743668579  0.3894926157841923
  0.8344200542990876  0.6717203948761181  0.3897452038465659
  0.3268311830832857  0.1647033089687682  0.3904433285289244
  0.1022806259112272  0.0516207237899451  0.3874474862557449
  0.8229752304335065  0.5066135785287571  0.3818281387763136
  0.8230397674223937  0.3204077915018146  0.3817841135047146
  0.4912381385435083  0.3205472216681855  0.3824832503304094
  0.6769221252412692  0.5070786763056390  0.3827553244349033
  0.6773673638336888  0.1738669996813016  0.3827618286037264
  0.4916447103274848  0.1743477656451944  0.3825957203051118
  0.8339845172477709  0.1625201640987441  0.6057157917359319
  0.8329726594193900  0.6752596045263459  0.6059587689605408
  0.3227489333830889  0.1633968510689741  0.6066849731855370
  0.1038413709324928  0.0545534126325791  0.6037392005780262
  0.8383172336516793  0.5178327078544527  0.5968600563601356
  0.8384279200446798  0.3244950879044382  0.5968131936967183
  0.4800439631415117  0.3241473823771699  0.5976036269692955
  0.6731575263856513  0.5176039566907420  0.5979718117719912
  0.6734172487415222  0.1586959295949057  0.5978191912717961
  0.4801546264961942  0.1589378346381807  0.5976199930602135
 
  0.00000000E+00  0.00000000E+00  0.00000000E+00
  0.00000000E+00  0.00000000E+00  0.00000000E+00
  0.00000000E+00  0.00000000E+00  0.00000000E+00
  0.00000000E+00  0.00000000E+00  0.00000000E+00
  0.00000000E+00  0.00000000E+00  0.00000000E+00
  0.00000000E+00  0.00000000E+00  0.00000000E+00
  0.00000000E+00  0.00000000E+00  0.00000000E+00
  0.00000000E+00  0.00000000E+00  0.00000000E+00
  0.00000000E+00  0.00000000E+00  0.00000000E+00
  0.00000000E+00  0.00000000E+00  0.00000000E+00
  0.00000000E+00  0.00000000E+00  0.00000000E+00
  0.00000000E+00  0.00000000E+00  0.00000000E+00
  0.00000000E+00  0.00000000E+00  0.00000000E+00
  0.00000000E+00  0.00000000E+00  0.00000000E+00
  0.00000000E+00  0.00000000E+00  0.00000000E+00
  0.00000000E+00  0.00000000E+00  0.00000000E+00
  0.00000000E+00  0.00000000E+00  0.00000000E+00
  0.00000000E+00  0.00000000E+00  0.00000000E+00
  0.00000000E+00  0.00000000E+00  0.00000000E+00
  0.00000000E+00  0.00000000E+00  0.00000000E+00
  0.00000000E+00  0.00000000E+00  0.00000000E+00
  0.00000000E+00  0.00000000E+00  0.00000000E+00
  0.00000000E+00  0.00000000E+00  0.00000000E+00
  0.00000000E+00  0.00000000E+00  0.00000000E+00
  0.00000000E+00  0.00000000E+00  0.00000000E+00
  0.00000000E+00  0.00000000E+00  0.00000000E+00
  0.00000000E+00  0.00000000E+00  0.00000000E+00
  0.00000000E+00  0.00000000E+00  0.00000000E+00
  0.00000000E+00  0.00000000E+00  0.00000000E+00
  0.00000000E+00  0.00000000E+00  0.00000000E+00
  0.00000000E+00  0.00000000E+00  0.00000000E+00
  0.00000000E+00  0.00000000E+00  0.00000000E+00
  0.00000000E+00  0.00000000E+00  0.00000000E+00
  0.00000000E+00  0.00000000E+00  0.00000000E+00
  0.00000000E+00  0.00000000E+00  0.00000000E+00
  0.00000000E+00  0.00000000E+00  0.00000000E+00
  0.00000000E+00  0.00000000E+00  0.00000000E+00
  0.00000000E+00  0.00000000E+00  0.00000000E+00
  0.00000000E+00  0.00000000E+00  0.00000000E+00
  0.00000000E+00  0.00000000E+00  0.00000000E+00
  0.00000000E+00  0.00000000E+00  0.00000000E+00
  0.00000000E+00  0.00000000E+00  0.00000000E+00
  0.00000000E+00  0.00000000E+00  0.00000000E+00
  0.00000000E+00  0.00000000E+00  0.00000000E+00
  0.00000000E+00  0.00000000E+00  0.00000000E+00
  0.00000000E+00  0.00000000E+00  0.00000000E+00
  0.00000000E+00  0.00000000E+00  0.00000000E+00
  0.00000000E+00  0.00000000E+00  0.00000000E+00
  0.00000000E+00  0.00000000E+00  0.00000000E+00
  0.00000000E+00  0.00000000E+00  0.00000000E+00
  0.00000000E+00  0.00000000E+00  0.00000000E+00
  0.00000000E+00  0.00000000E+00  0.00000000E+00
  0.00000000E+00  0.00000000E+00  0.00000000E+00
  0.00000000E+00  0.00000000E+00  0.00000000E+00
  0.00000000E+00  0.00000000E+00  0.00000000E+00
  0.00000000E+00  0.00000000E+00  0.00000000E+00
  0.00000000E+00  0.00000000E+00  0.00000000E+00
  0.00000000E+00  0.00000000E+00  0.00000000E+00
  0.00000000E+00  0.00000000E+00  0.00000000E+00
  0.00000000E+00  0.00000000E+00  0.00000000E+00
  0.00000000E+00  0.00000000E+00  0.00000000E+00
  0.00000000E+00  0.00000000E+00  0.00000000E+00
  0.00000000E+00  0.00000000E+00  0.00000000E+00
  0.00000000E+00  0.00000000E+00  0.00000000E+00
  0.00000000E+00  0.00000000E+00  0.00000000E+00
  0.00000000E+00  0.00000000E+00  0.00000000E+00
  0.00000000E+00  0.00000000E+00  0.00000000E+00
  0.00000000E+00  0.00000000E+00  0.00000000E+00
  0.00000000E+00  0.00000000E+00  0.00000000E+00
  0.00000000E+00  0.00000000E+00  0.00000000E+00
  0.00000000E+00  0.00000000E+00  0.00000000E+00
  0.00000000E+00  0.00000000E+00  0.00000000E+00
  0.00000000E+00  0.00000000E+00  0.00000000E+00
  0.00000000E+00  0.00000000E+00  0.00000000E+00
  0.00000000E+00  0.00000000E+00  0.00000000E+00
  0.00000000E+00  0.00000000E+00  0.00000000E+00
  0.00000000E+00  0.00000000E+00  0.00000000E+00
  0.00000000E+00  0.00000000E+00  0.00000000E+00
  0.00000000E+00  0.00000000E+00  0.00000000E+00
  0.00000000E+00  0.00000000E+00  0.00000000E+00
  0.00000000E+00  0.00000000E+00  0.00000000E+00
  0.00000000E+00  0.00000000E+00  0.00000000E+00
  0.00000000E+00  0.00000000E+00  0.00000000E+00
  0.00000000E+00  0.00000000E+00  0.00000000E+00
  0.00000000E+00  0.00000000E+00  0.00000000E+00
  0.00000000E+00  0.00000000E+00  0.00000000E+00
  0.00000000E+00  0.00000000E+00  0.00000000E+00
  0.00000000E+00  0.00000000E+00  0.00000000E+00
  0.00000000E+00  0.00000000E+00  0.00000000E+00
  0.00000000E+00  0.00000000E+00  0.00000000E+00
  0.00000000E+00  0.00000000E+00  0.00000000E+00
  0.00000000E+00  0.00000000E+00  0.00000000E+00
  0.00000000E+00  0.00000000E+00  0.00000000E+00
  0.00000000E+00  0.00000000E+00  0.00000000E+00
  0.00000000E+00  0.00000000E+00  0.00000000E+00
  0.00000000E+00  0.00000000E+00  0.00000000E+00
  0.00000000E+00  0.00000000E+00  0.00000000E+00
  0.00000000E+00  0.00000000E+00  0.00000000E+00
  0.00000000E+00  0.00000000E+00  0.00000000E+00
  0.00000000E+00  0.00000000E+00  0.00000000E+00
  0.00000000E+00  0.00000000E+00  0.00000000E+00
  0.00000000E+00  0.00000000E+00  0.00000000E+00
  0.00000000E+00  0.00000000E+00  0.00000000E+00
  0.00000000E+00  0.00000000E+00  0.00000000E+00
  0.00000000E+00  0.00000000E+00  0.00000000E+00
  0.00000000E+00  0.00000000E+00  0.00000000E+00
  0.00000000E+00  0.00000000E+00  0.00000000E+00
  0.00000000E+00  0.00000000E+00  0.00000000E+00
  0.00000000E+00  0.00000000E+00  0.00000000E+00
  0.00000000E+00  0.00000000E+00  0.00000000E+00
  0.00000000E+00  0.00000000E+00  0.00000000E+00
  0.00000000E+00  0.00000000E+00  0.00000000E+00
  0.00000000E+00  0.00000000E+00  0.00000000E+00
  0.00000000E+00  0.00000000E+00  0.00000000E+00
  0.00000000E+00  0.00000000E+00  0.00000000E+00
  0.00000000E+00  0.00000000E+00  0.00000000E+00
  0.00000000E+00  0.00000000E+00  0.00000000E+00
  0.00000000E+00  0.00000000E+00  0.00000000E+00
  0.00000000E+00  0.00000000E+00  0.00000000E+00
  0.00000000E+00  0.00000000E+00  0.00000000E+00
  0.00000000E+00  0.00000000E+00  0.00000000E+00
  0.00000000E+00  0.00000000E+00  0.00000000E+00
  0.00000000E+00  0.00000000E+00  0.00000000E+00
  0.00000000E+00  0.00000000E+00  0.00000000E+00
  0.00000000E+00  0.00000000E+00  0.00000000E+00
  0.00000000E+00  0.00000000E+00  0.00000000E+00
  0.00000000E+00  0.00000000E+00  0.00000000E+00
  0.00000000E+00  0.00000000E+00  0.00000000E+00
  0.00000000E+00  0.00000000E+00  0.00000000E+00
  0.00000000E+00  0.00000000E+00  0.00000000E+00
  0.00000000E+00  0.00000000E+00  0.00000000E+00
  0.00000000E+00  0.00000000E+00  0.00000000E+00
  0.00000000E+00  0.00000000E+00  0.00000000E+00
  0.00000000E+00  0.00000000E+00  0.00000000E+00
  0.00000000E+00  0.00000000E+00  0.00000000E+00
  0.00000000E+00  0.00000000E+00  0.00000000E+00
  0.00000000E+00  0.00000000E+00  0.00000000E+00
  0.00000000E+00  0.00000000E+00  0.00000000E+00
  0.00000000E+00  0.00000000E+00  0.00000000E+00
  0.00000000E+00  0.00000000E+00  0.00000000E+00
  0.00000000E+00  0.00000000E+00  0.00000000E+00
  0.00000000E+00  0.00000000E+00  0.00000000E+00
  0.00000000E+00  0.00000000E+00  0.00000000E+00
  0.00000000E+00  0.00000000E+00  0.00000000E+00
