Primitive Cell                          
   1.00000000000000     
    14.3401179408758690   -0.0303332061796190    0.0000000000000000
    -0.0507202619738702   24.8178368832059100    0.0000000000000000
     0.0000000000000000    0.0000000000000000   20.0000000000000000
   N    O    H    C 
    30    12     6    36
Direct
  0.1701263909877042  0.7663096168412693  0.4959066483166268
  0.6728641843577137  0.2652113757536227  0.4404616737604456
  0.0861674371169272  0.6307366743348268  0.4725081781789342
  0.0034612746903946  0.7138623302754823  0.4741752536445887
  0.9198876054088956  0.6305349029177592  0.4757358278629411
  0.4212741102491790  0.8529556138433918  0.4639480037381887
  0.5029261570952599  0.7696351023692287  0.4735356152571271
  0.5868615915998916  0.8518517830814503  0.4594601412285542
  0.8397252827715818  0.7682792278398267  0.4691821324611638
  0.7738350111858310  0.8543231875061963  0.4673478080990563
  0.9313719730050920  0.5210020749911450  0.5074004770425873
  0.3630347544664687  0.9438391206718606  0.3815822846757584
  0.2455646401635505  0.8472279210287326  0.5271251845606741
  0.6684657798057358  0.7147500747495172  0.4697783819420067
  0.5803630070053316  0.9615943624230425  0.4832653765939483
  0.3358001852006325  0.7177453572199255  0.4554078113591018
  0.5886993785307624  0.1306736241598188  0.4674460114043839
  0.5044377056659641  0.2132564546851583  0.4658842971633348
  0.4224320855899961  0.1294179814290359  0.4623700579468206
  0.9232834403861787  0.3531019303996672  0.4732731976418521
  0.0055109329106244  0.2703635213172788  0.4671284972678222
  0.0896479288387866  0.3527458089409663  0.4795445512595435
  0.2570346941642683  0.1842099354129942  0.4674073504369076
  0.0943569840117888  0.1749475141729988  0.4690562828023701
  0.4350225361364721  0.0213422744670169  0.4284769582216512
  0.8587623834399949  0.4426241167879610  0.5507311251382490
  0.7505610294764082  0.3437045810608552  0.4026661741145361
  0.2532687973557159  0.2962352642147934  0.4762263611442066
  0.0799706291911519  0.4628235727595253  0.4539677437987137
  0.8373798515924307  0.2184402284251945  0.4862465054486691
  0.7750458115096563  0.8763753148014857  0.5224942759655917
  0.7868356953128242  0.8751391082441984  0.4122665564196311
  0.2819217356119097  0.9566484550636147  0.3922329931672195
  0.3924023492781004  0.9129867808662979  0.3375931005767754
  0.2888728940392511  0.8528632074569273  0.5802532478144045
  0.1984270882267793  0.8809323540609171  0.4978105151955248
  0.0646061766882866  0.1611177595768041  0.5242535262798071
  0.0659568922357820  0.1608176221115301  0.4136902080305020
  0.8855423493979089  0.4141083838484221  0.5977845988099517
  0.7780296157647584  0.4528173195926470  0.5349259269232789
  0.6969933267298245  0.3780372509484948  0.4242280292456684
  0.8020929502471787  0.3471547984415722  0.3531206615849811
  0.2580016261391194  0.6478093251265662  0.4426872285284276
  0.7595800958981727  0.1488745946738916  0.5016565094660521
  0.7444009685912008  0.6436393122191788  0.4730429426325813
  0.1410457293309051  0.5368734419757217  0.4330754697937280
  0.3980284443716400  0.2932263750024831  0.4771704847292355
  0.6442994077821993  0.0348062286913731  0.5043033869149767
  0.1717784459899008  0.7147643547320186  0.4756981689525617
  0.2559561815121185  0.6901851942953172  0.4570774939420943
  0.6736703643334820  0.2146447866546026  0.4642376884525561
  0.7575947170087929  0.1907383447862472  0.4851047667137678
  0.0818260424021489  0.6849162005414087  0.4739153010765449
  0.5835618304485877  0.1847530648928952  0.4662613398556914
  0.0028014695734271  0.6058851099827933  0.4753634325950173
  0.9246479528331335  0.6846620756106105  0.4736057999632450
  0.5047422341430448  0.8771584407744157  0.4591265058940408
  0.4251056538372282  0.7991332219636718  0.4707764156884267
  0.5819085039747449  0.7982280726357942  0.4669426835939419
  0.6719526634552651  0.7687736462485688  0.4682370557083928
  0.8350053434232905  0.7143567193366351  0.4711939771896425
  0.7601468760033683  0.7945351521220516  0.4679449007270335
  0.5072399141930148  0.9369231856537610  0.4547565162893719
  0.0042632595715304  0.5460754527543159  0.4788703319584400
  0.4371202812424073  0.9684755249943606  0.4247736480809152
  0.3351472292043383  0.7693662375767971  0.4750450892508269
  0.2504107957972508  0.7921458989556172  0.4969523650671874
  0.7483047688239637  0.6875438981527040  0.4714228601149344
  0.0801267286584064  0.5165148646638968  0.4539843521604183
  0.5057709147811664  0.1053467072736041  0.4631837241715857
  0.4259169003242960  0.1833467157816955  0.4657768891938261
  0.0069190015695000  0.3773818576948784  0.4784670631643806
  0.9270436755465070  0.2993250578331583  0.4678503389583000
  0.0846166599615543  0.2989024346749574  0.4735152147848751
  0.1733415166290655  0.2679984319538207  0.4733672376540099
  0.3361799180706342  0.2130959126242260  0.4692684982767688
  0.1780749272468469  0.2111314598432017  0.4697800494813222
  0.0072886894417437  0.4372697794101583  0.4818807513725076
  0.5076014332329066  0.0455967225671046  0.4584054709968584
  0.9349572276970832  0.4680655754960767  0.5103548235416326
  0.8374264937209901  0.2691417092963917  0.4633046703038772
  0.7534634619020864  0.2907653213568366  0.4383242719726610
  0.3337129684828142  0.2696748836181442  0.4745671700624712
  0.5825980354071092  0.0152888164646185  0.4833174590007445
 
  0.00000000E+00  0.00000000E+00  0.00000000E+00
  0.00000000E+00  0.00000000E+00  0.00000000E+00
  0.00000000E+00  0.00000000E+00  0.00000000E+00
  0.00000000E+00  0.00000000E+00  0.00000000E+00
  0.00000000E+00  0.00000000E+00  0.00000000E+00
  0.00000000E+00  0.00000000E+00  0.00000000E+00
  0.00000000E+00  0.00000000E+00  0.00000000E+00
  0.00000000E+00  0.00000000E+00  0.00000000E+00
  0.00000000E+00  0.00000000E+00  0.00000000E+00
  0.00000000E+00  0.00000000E+00  0.00000000E+00
  0.00000000E+00  0.00000000E+00  0.00000000E+00
  0.00000000E+00  0.00000000E+00  0.00000000E+00
  0.00000000E+00  0.00000000E+00  0.00000000E+00
  0.00000000E+00  0.00000000E+00  0.00000000E+00
  0.00000000E+00  0.00000000E+00  0.00000000E+00
  0.00000000E+00  0.00000000E+00  0.00000000E+00
  0.00000000E+00  0.00000000E+00  0.00000000E+00
  0.00000000E+00  0.00000000E+00  0.00000000E+00
  0.00000000E+00  0.00000000E+00  0.00000000E+00
  0.00000000E+00  0.00000000E+00  0.00000000E+00
  0.00000000E+00  0.00000000E+00  0.00000000E+00
  0.00000000E+00  0.00000000E+00  0.00000000E+00
  0.00000000E+00  0.00000000E+00  0.00000000E+00
  0.00000000E+00  0.00000000E+00  0.00000000E+00
  0.00000000E+00  0.00000000E+00  0.00000000E+00
  0.00000000E+00  0.00000000E+00  0.00000000E+00
  0.00000000E+00  0.00000000E+00  0.00000000E+00
  0.00000000E+00  0.00000000E+00  0.00000000E+00
  0.00000000E+00  0.00000000E+00  0.00000000E+00
  0.00000000E+00  0.00000000E+00  0.00000000E+00
  0.00000000E+00  0.00000000E+00  0.00000000E+00
  0.00000000E+00  0.00000000E+00  0.00000000E+00
  0.00000000E+00  0.00000000E+00  0.00000000E+00
  0.00000000E+00  0.00000000E+00  0.00000000E+00
  0.00000000E+00  0.00000000E+00  0.00000000E+00
  0.00000000E+00  0.00000000E+00  0.00000000E+00
  0.00000000E+00  0.00000000E+00  0.00000000E+00
  0.00000000E+00  0.00000000E+00  0.00000000E+00
  0.00000000E+00  0.00000000E+00  0.00000000E+00
  0.00000000E+00  0.00000000E+00  0.00000000E+00
  0.00000000E+00  0.00000000E+00  0.00000000E+00
  0.00000000E+00  0.00000000E+00  0.00000000E+00
  0.00000000E+00  0.00000000E+00  0.00000000E+00
  0.00000000E+00  0.00000000E+00  0.00000000E+00
  0.00000000E+00  0.00000000E+00  0.00000000E+00
  0.00000000E+00  0.00000000E+00  0.00000000E+00
  0.00000000E+00  0.00000000E+00  0.00000000E+00
  0.00000000E+00  0.00000000E+00  0.00000000E+00
  0.00000000E+00  0.00000000E+00  0.00000000E+00
  0.00000000E+00  0.00000000E+00  0.00000000E+00
  0.00000000E+00  0.00000000E+00  0.00000000E+00
  0.00000000E+00  0.00000000E+00  0.00000000E+00
  0.00000000E+00  0.00000000E+00  0.00000000E+00
  0.00000000E+00  0.00000000E+00  0.00000000E+00
  0.00000000E+00  0.00000000E+00  0.00000000E+00
  0.00000000E+00  0.00000000E+00  0.00000000E+00
  0.00000000E+00  0.00000000E+00  0.00000000E+00
  0.00000000E+00  0.00000000E+00  0.00000000E+00
  0.00000000E+00  0.00000000E+00  0.00000000E+00
  0.00000000E+00  0.00000000E+00  0.00000000E+00
  0.00000000E+00  0.00000000E+00  0.00000000E+00
  0.00000000E+00  0.00000000E+00  0.00000000E+00
  0.00000000E+00  0.00000000E+00  0.00000000E+00
  0.00000000E+00  0.00000000E+00  0.00000000E+00
  0.00000000E+00  0.00000000E+00  0.00000000E+00
  0.00000000E+00  0.00000000E+00  0.00000000E+00
  0.00000000E+00  0.00000000E+00  0.00000000E+00
  0.00000000E+00  0.00000000E+00  0.00000000E+00
  0.00000000E+00  0.00000000E+00  0.00000000E+00
  0.00000000E+00  0.00000000E+00  0.00000000E+00
  0.00000000E+00  0.00000000E+00  0.00000000E+00
  0.00000000E+00  0.00000000E+00  0.00000000E+00
  0.00000000E+00  0.00000000E+00  0.00000000E+00
  0.00000000E+00  0.00000000E+00  0.00000000E+00
  0.00000000E+00  0.00000000E+00  0.00000000E+00
  0.00000000E+00  0.00000000E+00  0.00000000E+00
  0.00000000E+00  0.00000000E+00  0.00000000E+00
  0.00000000E+00  0.00000000E+00  0.00000000E+00
  0.00000000E+00  0.00000000E+00  0.00000000E+00
  0.00000000E+00  0.00000000E+00  0.00000000E+00
  0.00000000E+00  0.00000000E+00  0.00000000E+00
  0.00000000E+00  0.00000000E+00  0.00000000E+00
  0.00000000E+00  0.00000000E+00  0.00000000E+00
  0.00000000E+00  0.00000000E+00  0.00000000E+00
