Primitive Cell                          
   1.00000000000000     
    14.3303888500478198    0.0065960164879148    0.0000000000000000
    -7.1595367754861430   12.4076130845834296    0.0000000000000000
     0.0000000000000000    0.0000000000000000   20.0000000000000107
   O    H    C    N 
     3     9    21    15
Direct
  0.8748085386770796  0.2665036659145343  0.5429426197242577
  0.3762157227382659  0.1311939972378795  0.5444928789400691
  0.7377751193336977  0.6278615190345960  0.5438644933285204
  0.3028544927012859  0.4080250289339773  0.4350317464813287
  0.8881347681053811  0.2252066713282659  0.3885446294328005
  0.8407910776070366  0.1311381414070141  0.4518162087164441
  0.3187757291593698  0.1166778054508555  0.3905539507159048
  0.2732446321379811  0.1646144791129487  0.4541276834966368
  0.7786436927470106  0.6884006596606156  0.3901041224534154
  0.8728226595538047  0.7328761238007502  0.4533882739710791
  0.0870664787341724  0.7017315999388956  0.4353533554452653
  0.5957765758223772  0.9166352228241479  0.4344263535253390
  0.4444528959497163  0.5662897899679109  0.4472042499467008
  0.3903089706843232  0.4535189936230068  0.4403017669732847
  0.3837547284279239  0.6254538907746365  0.4452732802206754
  0.3786304238612743  0.7807610076657383  0.4454416400308716
  0.2234914855766803  0.6204890851475611  0.4447237677761464
  0.6097966433554518  0.2369362360196732  0.4467647464404436
  0.6095220305059215  0.3948233215158652  0.4466068003158767
  0.7675241550627376  0.3949810987334814  0.4465591840901624
  0.8871975022309613  0.4537386569302484  0.4482156398424877
  0.1037269006664232  0.5598114984288642  0.4464627677826059
  0.9462409587170839  0.3996327967127158  0.4587982748344643
  0.8962875741534049  0.2838569034462282  0.4830820396271847
  0.5486963524869068  0.1172018401024246  0.4484978115413369
  0.4377897746546751  0.9005863946240353  0.4471586669172609
  0.4358054087624481  0.0584961823734389  0.4598462705399839
  0.3707577191261251  0.1090146977640956  0.4846701536632310
  0.5506669223332281  0.4557639842187555  0.4485657107476939
  0.6045636301971129  0.5687426064967980  0.4597852253691599
  0.7202497704900210  0.6340031279886134  0.4842643484920615
  0.0451547515518200  0.6141650918759538  0.4401866760054673
  0.5504729657848557  0.9588380391185609  0.4399216777924693
  0.5513035811781251  0.6231957578410814  0.4566622804637959
  0.4394126188481309  0.7334489985419168  0.4456352818539742
  0.2757600956491686  0.5647153956603859  0.4443290514717972
  0.2706863321450257  0.7285514772635153  0.4448331036421465
  0.5517712808620914  0.2868503694134574  0.4462872314265880
  0.7173858268682167  0.4528507802302855  0.4459053078837769
  0.7177324875512809  0.2870597648938258  0.4464446628110537
  0.0538303264322977  0.4528109455445488  0.4554076481643961
  0.8882668626934347  0.2092725314872439  0.4379064665158197
  0.3811110587941613  0.9508339257603637  0.4567088414052449
  0.3034276865077885  0.1167792747616190  0.4400176672637954
  0.7946562547859415  0.7021614896784882  0.4396134446190203
  0.9378574440089835  0.5609533125421606  0.4392296029678420
  0.6047496745595922  0.0661625592172470  0.4387753785345012
  0.4435789172192131  0.3993922589907442  0.4391916279856147
 
  0.00000000E+00  0.00000000E+00  0.00000000E+00
  0.00000000E+00  0.00000000E+00  0.00000000E+00
  0.00000000E+00  0.00000000E+00  0.00000000E+00
  0.00000000E+00  0.00000000E+00  0.00000000E+00
  0.00000000E+00  0.00000000E+00  0.00000000E+00
  0.00000000E+00  0.00000000E+00  0.00000000E+00
  0.00000000E+00  0.00000000E+00  0.00000000E+00
  0.00000000E+00  0.00000000E+00  0.00000000E+00
  0.00000000E+00  0.00000000E+00  0.00000000E+00
  0.00000000E+00  0.00000000E+00  0.00000000E+00
  0.00000000E+00  0.00000000E+00  0.00000000E+00
  0.00000000E+00  0.00000000E+00  0.00000000E+00
  0.00000000E+00  0.00000000E+00  0.00000000E+00
  0.00000000E+00  0.00000000E+00  0.00000000E+00
  0.00000000E+00  0.00000000E+00  0.00000000E+00
  0.00000000E+00  0.00000000E+00  0.00000000E+00
  0.00000000E+00  0.00000000E+00  0.00000000E+00
  0.00000000E+00  0.00000000E+00  0.00000000E+00
  0.00000000E+00  0.00000000E+00  0.00000000E+00
  0.00000000E+00  0.00000000E+00  0.00000000E+00
  0.00000000E+00  0.00000000E+00  0.00000000E+00
  0.00000000E+00  0.00000000E+00  0.00000000E+00
  0.00000000E+00  0.00000000E+00  0.00000000E+00
  0.00000000E+00  0.00000000E+00  0.00000000E+00
  0.00000000E+00  0.00000000E+00  0.00000000E+00
  0.00000000E+00  0.00000000E+00  0.00000000E+00
  0.00000000E+00  0.00000000E+00  0.00000000E+00
  0.00000000E+00  0.00000000E+00  0.00000000E+00
  0.00000000E+00  0.00000000E+00  0.00000000E+00
  0.00000000E+00  0.00000000E+00  0.00000000E+00
  0.00000000E+00  0.00000000E+00  0.00000000E+00
  0.00000000E+00  0.00000000E+00  0.00000000E+00
  0.00000000E+00  0.00000000E+00  0.00000000E+00
  0.00000000E+00  0.00000000E+00  0.00000000E+00
  0.00000000E+00  0.00000000E+00  0.00000000E+00
  0.00000000E+00  0.00000000E+00  0.00000000E+00
  0.00000000E+00  0.00000000E+00  0.00000000E+00
  0.00000000E+00  0.00000000E+00  0.00000000E+00
  0.00000000E+00  0.00000000E+00  0.00000000E+00
  0.00000000E+00  0.00000000E+00  0.00000000E+00
  0.00000000E+00  0.00000000E+00  0.00000000E+00
  0.00000000E+00  0.00000000E+00  0.00000000E+00
  0.00000000E+00  0.00000000E+00  0.00000000E+00
  0.00000000E+00  0.00000000E+00  0.00000000E+00
  0.00000000E+00  0.00000000E+00  0.00000000E+00
  0.00000000E+00  0.00000000E+00  0.00000000E+00
  0.00000000E+00  0.00000000E+00  0.00000000E+00
  0.00000000E+00  0.00000000E+00  0.00000000E+00
