Primitive Cell                          
   1.00000000000000     
    22.4266482097393407    0.0062603489968541    0.0000000000000000
   -11.2079419687259261   19.4044491512905246    0.0000000000000000
     0.0000000000000000    0.0000000000000000   20.0000000000000000
   N    O    C    H 
     3     6    54    33
Direct
  0.0568807062398093  0.5781790874046422  0.6253014990842942
  0.5347835102121508  0.9565007093945681  0.6262494076234262
  0.4350073220278929  0.4745698031962533  0.6249341004136895
  0.0731627372365580  0.6380112380553484  0.6411552983869271
  0.0188638431615331  0.5258333819008527  0.6580516141194437
  0.5780962751062404  0.9405384950372948  0.6437640549860149
  0.5192027882130787  0.9941860183040845  0.6579460731660802
  0.3751421800753505  0.4316487967913361  0.6412515130489425
  0.4874253936106214  0.4879985702191831  0.6570834814126343
  0.0877694731397369  0.5688861006861856  0.5636352783850711
  0.0473828259908586  0.5203330790262157  0.5144764063445493
  0.0839283927590060  0.5072839142717100  0.4641228496169276
  0.0430694071820312  0.4539614485455772  0.4116163975851279
  0.1945119022109836  0.5943869753511990  0.5104732878596678
  0.1592748315715511  0.6072897585599719  0.5610010840264366
  0.1557623138196078  0.5429710392431275  0.4633912925418358
  0.2707352763714468  0.6329709332022091  0.5087264546364949
  0.3078405578942309  0.5978699918267125  0.5088822349078228
  0.3067155125273118  0.7052191937720096  0.5083852272285228
  0.3800341016820212  0.6341011981090006  0.5090140223385973
  0.4150893282202048  0.7063388484483610  0.5087789235562923
  0.3788710642619222  0.7423307855959678  0.5085087581067000
  0.7495767949044136  0.3740926677617011  0.4995378806834765
  0.7116713123905996  0.4084467277310466  0.4992160315194667
  0.6394217525646511  0.3721797793446058  0.4989465729251350
  0.6051106132713073  0.2998892850758068  0.4985570296974018
  0.6413827696180121  0.2638913119910313  0.4990414765245674
  0.7135987762654779  0.3017876860080833  0.4993524327373464
  0.4164495861848110  0.8186310738663707  0.5100266055961526
  0.4633671867122118  0.8539837849460099  0.5613917895468745
  0.4963522796332285  0.9255416061940664  0.5638028345427486
  0.4894138472615168  0.9658743863444457  0.5137320713397102
  0.5300454598904167  0.0416188622485123  0.5098193220136480
  0.5959437394872111  0.0804481797146934  0.5381357228798223
  0.6319373603625706  0.1519016175528662  0.5344354218960632
  0.6040757608170324  0.1876884474096414  0.5011382955438179
  0.4187701751566735  0.5965905398129578  0.5108030978037519
  0.4057333343518437  0.5480521575903978  0.5609914959277873
  0.4443196733145953  0.5151009637706920  0.5635110789268367
  0.4932069026611074  0.5238421862452611  0.5145189642750339
  0.5283721499675806  0.4833219350638558  0.5102268558629959
  0.5002729775039185  0.4163190235824672  0.5362324221176991
  0.5357856123439717  0.3804311730585326  0.5323669438622645
  0.6005255839969053  0.4094593493063954  0.5010782749057867
  0.9716975942991652  0.4851650158168610  0.5105237910413791
  0.9328945719579878  0.5129831153320268  0.5373541876789858
  0.8615031031697242  0.4774625587701848  0.5336916215504459
  0.8257143112593610  0.4129911443094727  0.5018227621680964
  0.4410476160895840  0.9292022485526843  0.4625115361596102
  0.4048681136220651  0.8572973248730165  0.4619365794762160
  0.5396160962135070  0.1485568426830071  0.4701409774679846
  0.5027177241891394  0.0768463005080520  0.4737544833540142
  0.4345002770450463  0.0350841695142279  0.4388450454627915
  0.4299621862676659  0.9700281405293083  0.4089147011413985
  0.5065506842812368  0.5739732405929345  0.4646504295164746
  0.4706306837059344  0.6099258852306733  0.4640498647608879
  0.6268824348906961  0.4750660546814203  0.4721689881454481
  0.5920774939059967  0.5119356379003719  0.4761081464024244
  0.6197741717041012  0.5815236576930118  0.4435892763096518
  0.5603908876600272  0.5871887598882850  0.4125054138603232
  0.8648374939083823  0.3868815185405268  0.4722254313339320
  0.9364785232437853  0.4216953235680876  0.4759162363047835
  0.9781551162061817  0.3942496148200902  0.4425461274960938
  0.0753527238943477  0.4356905508084310  0.3881552655346852
  0.0279147558837636  0.4778179742143891  0.3716742932361399
  0.1871330030046110  0.6446534832830864  0.6003482937627780
  0.1825333382823047  0.5316736809981961  0.4241180859301181
  0.2781783187147724  0.7329091676663140  0.5088052595569295
  0.2802067048689807  0.5416235113375762  0.5096437200599127
  0.4712809964499698  0.7349352733525620  0.5096029906951074
  0.5489975131964187  0.2709526686922104  0.4988159861282284
  0.7424057084599553  0.2744649694531702  0.5002568531516900
  0.7389457325644386  0.4646021893101988  0.5000342396242061
  0.6202158966395288  0.0549710280328881  0.5633598892207559
  0.6818744139837776  0.1803690742023107  0.5590425700002584
  0.4719507795361082  0.8262186601528043  0.6015053659798468
  0.4496774573442153  0.3911421181101602  0.5597836148900370
  0.5133943934504046  0.3295763882715974  0.5552755566762357
  0.3681398654671995  0.5381094622353828  0.6002022014275852
  0.9583662883007804  0.5633854074677132  0.5613568813684537
  0.8331245853331026  0.4996444771038853  0.5571658996875826
  0.3676616796514125  0.8304057633723190  0.4220329309153428
  0.5180858148481704  0.1746482532500835  0.4411727682319082
  0.3920446704875005  0.0200655819759561  0.4749431354928504
  0.4282293757075522  0.0661481411107943  0.3999245920615451
  0.3799972263327120  0.9377048909511529  0.3844373597733934
  0.4699180843261530  0.9850923812076786  0.3699639875471235
  0.4821026931937169  0.6483921060462592  0.4251194668287681
  0.6753977527150496  0.4976650798365441  0.4446296905866873
  0.6457965608363310  0.6225645322357281  0.4813602349900634
  0.6585090973627103  0.5893507498089292  0.4056789202602289
  0.5788831865768529  0.6381301193883715  0.3897652235586975
  0.5370020196563345  0.5488018010714129  0.3719666874892198
  0.8388143415080478  0.3385764611207662  0.4442865097167257
  0.9932258862613423  0.3677689718712926  0.4797555632961945
  0.9470686593676234  0.3558814166943591  0.4043993460208384
 
  0.00000000E+00  0.00000000E+00  0.00000000E+00
  0.00000000E+00  0.00000000E+00  0.00000000E+00
  0.00000000E+00  0.00000000E+00  0.00000000E+00
  0.00000000E+00  0.00000000E+00  0.00000000E+00
  0.00000000E+00  0.00000000E+00  0.00000000E+00
  0.00000000E+00  0.00000000E+00  0.00000000E+00
  0.00000000E+00  0.00000000E+00  0.00000000E+00
  0.00000000E+00  0.00000000E+00  0.00000000E+00
  0.00000000E+00  0.00000000E+00  0.00000000E+00
  0.00000000E+00  0.00000000E+00  0.00000000E+00
  0.00000000E+00  0.00000000E+00  0.00000000E+00
  0.00000000E+00  0.00000000E+00  0.00000000E+00
  0.00000000E+00  0.00000000E+00  0.00000000E+00
  0.00000000E+00  0.00000000E+00  0.00000000E+00
  0.00000000E+00  0.00000000E+00  0.00000000E+00
  0.00000000E+00  0.00000000E+00  0.00000000E+00
  0.00000000E+00  0.00000000E+00  0.00000000E+00
  0.00000000E+00  0.00000000E+00  0.00000000E+00
  0.00000000E+00  0.00000000E+00  0.00000000E+00
  0.00000000E+00  0.00000000E+00  0.00000000E+00
  0.00000000E+00  0.00000000E+00  0.00000000E+00
  0.00000000E+00  0.00000000E+00  0.00000000E+00
  0.00000000E+00  0.00000000E+00  0.00000000E+00
  0.00000000E+00  0.00000000E+00  0.00000000E+00
  0.00000000E+00  0.00000000E+00  0.00000000E+00
  0.00000000E+00  0.00000000E+00  0.00000000E+00
  0.00000000E+00  0.00000000E+00  0.00000000E+00
  0.00000000E+00  0.00000000E+00  0.00000000E+00
  0.00000000E+00  0.00000000E+00  0.00000000E+00
  0.00000000E+00  0.00000000E+00  0.00000000E+00
  0.00000000E+00  0.00000000E+00  0.00000000E+00
  0.00000000E+00  0.00000000E+00  0.00000000E+00
  0.00000000E+00  0.00000000E+00  0.00000000E+00
  0.00000000E+00  0.00000000E+00  0.00000000E+00
  0.00000000E+00  0.00000000E+00  0.00000000E+00
  0.00000000E+00  0.00000000E+00  0.00000000E+00
  0.00000000E+00  0.00000000E+00  0.00000000E+00
  0.00000000E+00  0.00000000E+00  0.00000000E+00
  0.00000000E+00  0.00000000E+00  0.00000000E+00
  0.00000000E+00  0.00000000E+00  0.00000000E+00
  0.00000000E+00  0.00000000E+00  0.00000000E+00
  0.00000000E+00  0.00000000E+00  0.00000000E+00
  0.00000000E+00  0.00000000E+00  0.00000000E+00
  0.00000000E+00  0.00000000E+00  0.00000000E+00
  0.00000000E+00  0.00000000E+00  0.00000000E+00
  0.00000000E+00  0.00000000E+00  0.00000000E+00
  0.00000000E+00  0.00000000E+00  0.00000000E+00
  0.00000000E+00  0.00000000E+00  0.00000000E+00
  0.00000000E+00  0.00000000E+00  0.00000000E+00
  0.00000000E+00  0.00000000E+00  0.00000000E+00
  0.00000000E+00  0.00000000E+00  0.00000000E+00
  0.00000000E+00  0.00000000E+00  0.00000000E+00
  0.00000000E+00  0.00000000E+00  0.00000000E+00
  0.00000000E+00  0.00000000E+00  0.00000000E+00
  0.00000000E+00  0.00000000E+00  0.00000000E+00
  0.00000000E+00  0.00000000E+00  0.00000000E+00
  0.00000000E+00  0.00000000E+00  0.00000000E+00
  0.00000000E+00  0.00000000E+00  0.00000000E+00
  0.00000000E+00  0.00000000E+00  0.00000000E+00
  0.00000000E+00  0.00000000E+00  0.00000000E+00
  0.00000000E+00  0.00000000E+00  0.00000000E+00
  0.00000000E+00  0.00000000E+00  0.00000000E+00
  0.00000000E+00  0.00000000E+00  0.00000000E+00
  0.00000000E+00  0.00000000E+00  0.00000000E+00
  0.00000000E+00  0.00000000E+00  0.00000000E+00
  0.00000000E+00  0.00000000E+00  0.00000000E+00
  0.00000000E+00  0.00000000E+00  0.00000000E+00
  0.00000000E+00  0.00000000E+00  0.00000000E+00
  0.00000000E+00  0.00000000E+00  0.00000000E+00
  0.00000000E+00  0.00000000E+00  0.00000000E+00
  0.00000000E+00  0.00000000E+00  0.00000000E+00
  0.00000000E+00  0.00000000E+00  0.00000000E+00
  0.00000000E+00  0.00000000E+00  0.00000000E+00
  0.00000000E+00  0.00000000E+00  0.00000000E+00
  0.00000000E+00  0.00000000E+00  0.00000000E+00
  0.00000000E+00  0.00000000E+00  0.00000000E+00
  0.00000000E+00  0.00000000E+00  0.00000000E+00
  0.00000000E+00  0.00000000E+00  0.00000000E+00
  0.00000000E+00  0.00000000E+00  0.00000000E+00
  0.00000000E+00  0.00000000E+00  0.00000000E+00
  0.00000000E+00  0.00000000E+00  0.00000000E+00
  0.00000000E+00  0.00000000E+00  0.00000000E+00
  0.00000000E+00  0.00000000E+00  0.00000000E+00
  0.00000000E+00  0.00000000E+00  0.00000000E+00
  0.00000000E+00  0.00000000E+00  0.00000000E+00
  0.00000000E+00  0.00000000E+00  0.00000000E+00
  0.00000000E+00  0.00000000E+00  0.00000000E+00
  0.00000000E+00  0.00000000E+00  0.00000000E+00
  0.00000000E+00  0.00000000E+00  0.00000000E+00
  0.00000000E+00  0.00000000E+00  0.00000000E+00
  0.00000000E+00  0.00000000E+00  0.00000000E+00
  0.00000000E+00  0.00000000E+00  0.00000000E+00
  0.00000000E+00  0.00000000E+00  0.00000000E+00
  0.00000000E+00  0.00000000E+00  0.00000000E+00
  0.00000000E+00  0.00000000E+00  0.00000000E+00
  0.00000000E+00  0.00000000E+00  0.00000000E+00
