Primitive Cell                          
   1.00000000000000     
    22.0600764460550316    0.0000000029809630    0.0000000000000000
   -11.0300382256090863   19.1045866102199042    0.0000000000000000
     0.0000000000000000    0.0000000000000000   20.0000000000000000
   H    N    C    O 
    24     6    48    12
Direct
  0.3320641170437355  0.0270768794979261  0.4747557151357498
  0.4997756401607560  0.3157585465601684  0.4367308587988603
  0.5086913927413264  0.1621961832783683  0.5644437483508185
  0.7962585664021660  0.4081290206248411  0.5045785983244926
  0.5918709793751589  0.3881295457773319  0.5045785983244926
  0.6118704542226681  0.2037414335978340  0.5045785983244926
  0.8699774804299452  0.9418853224019585  0.4912161480391788
  0.0581146775980415  0.9280921580279795  0.4912161480391788
  0.0719078419720205  0.1300225195700548  0.4912161480391788
  0.9561131039798667  0.8401386514986768  0.3921737297781434
  0.8159829063994124  0.5002243598392440  0.4367308587988603
  0.8189989442730834  0.6451819111342019  0.2982420849255476
  0.8840255475188030  0.0438868960201333  0.3921737297781434
  0.6842414534398316  0.1840170936005876  0.4367308587988603
  0.8261829668611256  0.1810010557269166  0.2982420849255476
  0.1598613485013232  0.1159744524811970  0.3921737297781434
  0.3548180888657981  0.1738170331388744  0.2982420849255476
  0.6535047905370419  0.4913086072586736  0.5644437483508185
  0.8612722179872065  0.8362667623955389  0.5822879055232733
  0.6950127624541906  0.6679358829562645  0.4747557151357498
  0.8378038167216317  0.3464952094629581  0.5644437483508185
  0.9749945444083323  0.1387277820127935  0.5822879055232733
  0.9729231205020739  0.3049872375458094  0.4747557151357498
  0.1637332376044540  0.0250054555916677  0.5822879055232733
  0.4057489701253658  0.2281799907448985  0.4595723919689121
  0.8224310206195327  0.5942510298746342  0.4595723919689121
  0.7718200092551015  0.1775689793804673  0.4595723919689121
  0.8292522097224406  0.7404035191404219  0.5378789284952887
  0.9111513094179884  0.1707477902775594  0.5378789284952887
  0.2595964808595781  0.0888486905820116  0.5378789284952887
  0.3720952542971361  0.1653109694607977  0.4897809664404349
  0.4082868623660474  0.1387092171822673  0.5266788838192724
  0.3756378051029898  0.0678224141792327  0.5594395854239167
  0.4750424396759172  0.2664233193279841  0.4644894711082799
  0.4806978124081951  0.1810172764714508  0.5335873721951856
  0.5930988498702021  0.2908773126359918  0.5047065976652974
  0.6359404411479090  0.2606087898288081  0.5048631318245924
  0.7091226873640082  0.3022215372342103  0.5047065976652974
  0.7393912101711919  0.3753316513191010  0.5048631318245924
  0.6977784627657897  0.4069011501297979  0.5047065976652974
  0.6246683486808990  0.3640595588520910  0.5048631318245924
  0.0734688211057701  0.0328412510879872  0.4919838065047628
  0.0403602879522822  0.0729954102461079  0.4921481373425109
  0.9671587489120128  0.0406275700177758  0.4919838065047628
  0.9270045897538921  0.9673648777061672  0.4921481373425109
  0.9593724299822242  0.9265311788942299  0.4919838065047628
  0.0326351222938328  0.9596397120477178  0.4921481373425109
  0.9163598377987938  0.8492576098157585  0.4885714562468237
  0.8335119444138002  0.7052491538378121  0.4848888494018411
  0.8772695837956590  0.7399602650009314  0.4297363825396801
  0.9207505357029362  0.8124276848595784  0.4335806409227487
  0.7932157151636687  0.6279047457028710  0.4897809664404349
  0.7300055413407662  0.4837795238683924  0.5018333223129829
  0.7913808796520669  0.5249575603240828  0.4644894711082799
  0.8785877847748296  0.7051601810989112  0.3660320777231050
  0.9328977720169576  0.0836401622012062  0.4885714562468237
  0.8717372094240119  0.1664880555861998  0.4848888494018411
  0.8626906812052795  0.1227304162043410  0.4297363825396801
  0.8916771491566351  0.0792494642970567  0.4335806409227487
  0.8346890305392023  0.2067842848363313  0.4897809664404349
  0.7537739825276333  0.2699944586592338  0.5018333223129829
  0.7335766806720159  0.2086191203479331  0.4644894711082799
  0.8265723963240816  0.1214122152251704  0.3660320777231050
  0.1507423901842486  0.0671022279830424  0.4885714562468237
  0.2947508461621879  0.1282627905759881  0.4848888494018411
  0.2600397349990686  0.1373093187947276  0.4297363825396801
  0.1875723151404216  0.1083228508433649  0.4335806409227487
  0.5162204761316076  0.2462260174723667  0.5018333223129829
  0.2948398189010817  0.1734276036759184  0.3660320777231050
  0.8678732404928269  0.8100590863540376  0.5387972264312282
  0.7304223548162270  0.5917131376339526  0.5266788838192724
  0.7003194640632557  0.5193021875918049  0.5335873721951856
  0.6921846090762429  0.6243621948970102  0.5594395854239167
  0.9421858458612107  0.1321267595071731  0.5387972264312282
  0.8612907828177327  0.2695776451837801  0.5266788838192724
  0.8189827235285492  0.2996805359367443  0.5335873721951856
  0.9321775858207673  0.3078153909237571  0.5594395854239167
  0.1899409136459624  0.0578141541387893  0.5387972264312282
  0.3878333538080696  0.0596894849361931  0.6168826255223792
  0.3366890228253325  0.0113859444707956  0.5191684033062742
  0.9317961044938770  0.7159562465914533  0.3372932899850412
  0.8130147492579169  0.6648763373815854  0.3399976250633969
  0.7841601420975763  0.0682038955061230  0.3372932899850412
  0.8518615881236755  0.1869852507420831  0.3399976250633969
  0.2840437534085467  0.2158398579024237  0.3372932899850412
  0.3351236626184146  0.1481384118763245  0.3399976250633969
  0.6718561311281235  0.6121666461919304  0.6168826255223792
  0.6746969216454559  0.6633109771746675  0.5191684033062742
  0.9403105150638069  0.3281438688718765  0.6168826255223792
  0.9886140555292044  0.3253030783545441  0.5191684033062742
 
  0.00000000E+00  0.00000000E+00  0.00000000E+00
  0.00000000E+00  0.00000000E+00  0.00000000E+00
  0.00000000E+00  0.00000000E+00  0.00000000E+00
  0.00000000E+00  0.00000000E+00  0.00000000E+00
  0.00000000E+00  0.00000000E+00  0.00000000E+00
  0.00000000E+00  0.00000000E+00  0.00000000E+00
  0.00000000E+00  0.00000000E+00  0.00000000E+00
  0.00000000E+00  0.00000000E+00  0.00000000E+00
  0.00000000E+00  0.00000000E+00  0.00000000E+00
  0.00000000E+00  0.00000000E+00  0.00000000E+00
  0.00000000E+00  0.00000000E+00  0.00000000E+00
  0.00000000E+00  0.00000000E+00  0.00000000E+00
  0.00000000E+00  0.00000000E+00  0.00000000E+00
  0.00000000E+00  0.00000000E+00  0.00000000E+00
  0.00000000E+00  0.00000000E+00  0.00000000E+00
  0.00000000E+00  0.00000000E+00  0.00000000E+00
  0.00000000E+00  0.00000000E+00  0.00000000E+00
  0.00000000E+00  0.00000000E+00  0.00000000E+00
  0.00000000E+00  0.00000000E+00  0.00000000E+00
  0.00000000E+00  0.00000000E+00  0.00000000E+00
  0.00000000E+00  0.00000000E+00  0.00000000E+00
  0.00000000E+00  0.00000000E+00  0.00000000E+00
  0.00000000E+00  0.00000000E+00  0.00000000E+00
  0.00000000E+00  0.00000000E+00  0.00000000E+00
  0.00000000E+00  0.00000000E+00  0.00000000E+00
  0.00000000E+00  0.00000000E+00  0.00000000E+00
  0.00000000E+00  0.00000000E+00  0.00000000E+00
  0.00000000E+00  0.00000000E+00  0.00000000E+00
  0.00000000E+00  0.00000000E+00  0.00000000E+00
  0.00000000E+00  0.00000000E+00  0.00000000E+00
  0.00000000E+00  0.00000000E+00  0.00000000E+00
  0.00000000E+00  0.00000000E+00  0.00000000E+00
  0.00000000E+00  0.00000000E+00  0.00000000E+00
  0.00000000E+00  0.00000000E+00  0.00000000E+00
  0.00000000E+00  0.00000000E+00  0.00000000E+00
  0.00000000E+00  0.00000000E+00  0.00000000E+00
  0.00000000E+00  0.00000000E+00  0.00000000E+00
  0.00000000E+00  0.00000000E+00  0.00000000E+00
  0.00000000E+00  0.00000000E+00  0.00000000E+00
  0.00000000E+00  0.00000000E+00  0.00000000E+00
  0.00000000E+00  0.00000000E+00  0.00000000E+00
  0.00000000E+00  0.00000000E+00  0.00000000E+00
  0.00000000E+00  0.00000000E+00  0.00000000E+00
  0.00000000E+00  0.00000000E+00  0.00000000E+00
  0.00000000E+00  0.00000000E+00  0.00000000E+00
  0.00000000E+00  0.00000000E+00  0.00000000E+00
  0.00000000E+00  0.00000000E+00  0.00000000E+00
  0.00000000E+00  0.00000000E+00  0.00000000E+00
  0.00000000E+00  0.00000000E+00  0.00000000E+00
  0.00000000E+00  0.00000000E+00  0.00000000E+00
  0.00000000E+00  0.00000000E+00  0.00000000E+00
  0.00000000E+00  0.00000000E+00  0.00000000E+00
  0.00000000E+00  0.00000000E+00  0.00000000E+00
  0.00000000E+00  0.00000000E+00  0.00000000E+00
  0.00000000E+00  0.00000000E+00  0.00000000E+00
  0.00000000E+00  0.00000000E+00  0.00000000E+00
  0.00000000E+00  0.00000000E+00  0.00000000E+00
  0.00000000E+00  0.00000000E+00  0.00000000E+00
  0.00000000E+00  0.00000000E+00  0.00000000E+00
  0.00000000E+00  0.00000000E+00  0.00000000E+00
  0.00000000E+00  0.00000000E+00  0.00000000E+00
  0.00000000E+00  0.00000000E+00  0.00000000E+00
  0.00000000E+00  0.00000000E+00  0.00000000E+00
  0.00000000E+00  0.00000000E+00  0.00000000E+00
  0.00000000E+00  0.00000000E+00  0.00000000E+00
  0.00000000E+00  0.00000000E+00  0.00000000E+00
  0.00000000E+00  0.00000000E+00  0.00000000E+00
  0.00000000E+00  0.00000000E+00  0.00000000E+00
  0.00000000E+00  0.00000000E+00  0.00000000E+00
  0.00000000E+00  0.00000000E+00  0.00000000E+00
  0.00000000E+00  0.00000000E+00  0.00000000E+00
  0.00000000E+00  0.00000000E+00  0.00000000E+00
  0.00000000E+00  0.00000000E+00  0.00000000E+00
  0.00000000E+00  0.00000000E+00  0.00000000E+00
  0.00000000E+00  0.00000000E+00  0.00000000E+00
  0.00000000E+00  0.00000000E+00  0.00000000E+00
  0.00000000E+00  0.00000000E+00  0.00000000E+00
  0.00000000E+00  0.00000000E+00  0.00000000E+00
  0.00000000E+00  0.00000000E+00  0.00000000E+00
  0.00000000E+00  0.00000000E+00  0.00000000E+00
  0.00000000E+00  0.00000000E+00  0.00000000E+00
  0.00000000E+00  0.00000000E+00  0.00000000E+00
  0.00000000E+00  0.00000000E+00  0.00000000E+00
  0.00000000E+00  0.00000000E+00  0.00000000E+00
  0.00000000E+00  0.00000000E+00  0.00000000E+00
  0.00000000E+00  0.00000000E+00  0.00000000E+00
  0.00000000E+00  0.00000000E+00  0.00000000E+00
  0.00000000E+00  0.00000000E+00  0.00000000E+00
  0.00000000E+00  0.00000000E+00  0.00000000E+00
  0.00000000E+00  0.00000000E+00  0.00000000E+00
