Primitive Cell                          
   1.00000000000000     
    14.4388384515554051    0.1716036991808712    0.0000000000000000
    -7.0519183505398138   12.1437644228139110    0.0000000000000000
     0.0000000000000000    0.0000000000000000   20.0000000000000000
   N    H    C    O 
    12     6    24    12
Direct
  0.4797732361411491  0.0721946662725514  0.5672097405701066
  0.5644605808538543  0.2911993261232411  0.5172062453185049
  0.7273363275592928  0.2881793682378273  0.5225995452611087
  0.7297095309250992  0.4556690234177410  0.5008078430459690
  0.4398886444873469  0.7247465638399930  0.5179294562025021
  0.2759935555233568  0.7241345092683602  0.5207507185128222
  0.2781043785328094  0.5572563496066039  0.5021429691099684
  0.9470634634583348  0.5630383868097510  0.5098754929949294
  0.6152524414513394  0.5658408420243362  0.5040429908425423
  0.0594678562523114  0.4496096575389501  0.5188897623279018
  0.4018647877942740  0.4594056390627799  0.4755620697284968
  0.5251592687903539  0.9419099072185730  0.4866588070991398
  0.6604152017100446  0.9511987114869953  0.4333777864784309
  0.1078014321832725  0.7693457714718335  0.5875375883111857
  0.6254909197577661  0.7542063663080896  0.4130179373801255
  0.3783861132382285  0.0716666482877102  0.6323226191666791
  0.8859706043370679  0.2375314809782694  0.4458159476576924
  0.2774224874897300  0.3095940836137387  0.4490969190470793
  0.5832728739133444  0.0504028933459537  0.4824076520468878
  0.6666036147701320  0.0914382345257536  0.4274890863684817
  0.5603362891197179  0.1178820109787040  0.5238150777565096
  0.6235269181313896  0.3987359521261666  0.5035900992186839
  0.6212466319651497  0.2397735129522616  0.5214290310792791
  0.7779366611545768  0.3969656745217236  0.5141120277432165
  0.3842453535864081  0.6169022611539816  0.5059564944696291
  0.3817404196610426  0.7744882074540627  0.5241267193454746
  0.2280191453644989  0.6154211675630776  0.5111534794789918
  0.0530991124973639  0.6162778920303396  0.5078013136299049
  0.1101725464471883  0.5582957512114746  0.5116978055825641
  0.1022709411938223  0.7377139849653673  0.4930249828889899
  0.5623694228929210  0.6212290588532383  0.5018522711192261
  0.4498855676966542  0.5639786594956888  0.4947668091318604
  0.6308465508541232  0.7442683889179449  0.5099551428558442
  0.4211718095646191  0.9630281238368568  0.5712536507509824
  0.4431289001674372  0.8961810274129434  0.5292036723429234
  0.3372986505875275  0.9222701603350245  0.6258343970979610
  0.8959600001164105  0.4539347757448411  0.5160947019723068
  0.9532853341194212  0.3964772028799288  0.5221611719020984
  0.9062791803951242  0.2763260038594950  0.5397611074205315
  0.5645421855597164  0.4587480145070160  0.4907530577512844
  0.4577123713711941  0.4078648076345743  0.4677556755008965
  0.4020297879769572  0.3025409687909857  0.4280277593056638
  0.7016911331497226  0.1817013315415750  0.4021122658544911
  0.6964878129759100  0.0197989441941999  0.4072540873767636
  0.1206797704287368  0.7698610923855327  0.4356466893989079
  0.1151514481442888  0.8054522062604903  0.5444325999400448
  0.6670887248156774  0.7881277989917095  0.5628146243771610
  0.6559635032983380  0.8028989494816514  0.4514407184333322
  0.2871038670996100  0.8270597774273938  0.6435467555899095
  0.3253094858693615  0.0023855384224589  0.6538065612348021
  0.8979426970414224  0.2485713294884846  0.5978703417389113
  0.8850336084953980  0.2046805872108948  0.4891928365264846
  0.4495306364081699  0.2646867421612740  0.3978180891969814
  0.2954987126809669  0.2586911657695907  0.4260015146668366
 
  0.00000000E+00  0.00000000E+00  0.00000000E+00
  0.00000000E+00  0.00000000E+00  0.00000000E+00
  0.00000000E+00  0.00000000E+00  0.00000000E+00
  0.00000000E+00  0.00000000E+00  0.00000000E+00
  0.00000000E+00  0.00000000E+00  0.00000000E+00
  0.00000000E+00  0.00000000E+00  0.00000000E+00
  0.00000000E+00  0.00000000E+00  0.00000000E+00
  0.00000000E+00  0.00000000E+00  0.00000000E+00
  0.00000000E+00  0.00000000E+00  0.00000000E+00
  0.00000000E+00  0.00000000E+00  0.00000000E+00
  0.00000000E+00  0.00000000E+00  0.00000000E+00
  0.00000000E+00  0.00000000E+00  0.00000000E+00
  0.00000000E+00  0.00000000E+00  0.00000000E+00
  0.00000000E+00  0.00000000E+00  0.00000000E+00
  0.00000000E+00  0.00000000E+00  0.00000000E+00
  0.00000000E+00  0.00000000E+00  0.00000000E+00
  0.00000000E+00  0.00000000E+00  0.00000000E+00
  0.00000000E+00  0.00000000E+00  0.00000000E+00
  0.00000000E+00  0.00000000E+00  0.00000000E+00
  0.00000000E+00  0.00000000E+00  0.00000000E+00
  0.00000000E+00  0.00000000E+00  0.00000000E+00
  0.00000000E+00  0.00000000E+00  0.00000000E+00
  0.00000000E+00  0.00000000E+00  0.00000000E+00
  0.00000000E+00  0.00000000E+00  0.00000000E+00
  0.00000000E+00  0.00000000E+00  0.00000000E+00
  0.00000000E+00  0.00000000E+00  0.00000000E+00
  0.00000000E+00  0.00000000E+00  0.00000000E+00
  0.00000000E+00  0.00000000E+00  0.00000000E+00
  0.00000000E+00  0.00000000E+00  0.00000000E+00
  0.00000000E+00  0.00000000E+00  0.00000000E+00
  0.00000000E+00  0.00000000E+00  0.00000000E+00
  0.00000000E+00  0.00000000E+00  0.00000000E+00
  0.00000000E+00  0.00000000E+00  0.00000000E+00
  0.00000000E+00  0.00000000E+00  0.00000000E+00
  0.00000000E+00  0.00000000E+00  0.00000000E+00
  0.00000000E+00  0.00000000E+00  0.00000000E+00
  0.00000000E+00  0.00000000E+00  0.00000000E+00
  0.00000000E+00  0.00000000E+00  0.00000000E+00
  0.00000000E+00  0.00000000E+00  0.00000000E+00
  0.00000000E+00  0.00000000E+00  0.00000000E+00
  0.00000000E+00  0.00000000E+00  0.00000000E+00
  0.00000000E+00  0.00000000E+00  0.00000000E+00
  0.00000000E+00  0.00000000E+00  0.00000000E+00
  0.00000000E+00  0.00000000E+00  0.00000000E+00
  0.00000000E+00  0.00000000E+00  0.00000000E+00
  0.00000000E+00  0.00000000E+00  0.00000000E+00
  0.00000000E+00  0.00000000E+00  0.00000000E+00
  0.00000000E+00  0.00000000E+00  0.00000000E+00
  0.00000000E+00  0.00000000E+00  0.00000000E+00
  0.00000000E+00  0.00000000E+00  0.00000000E+00
  0.00000000E+00  0.00000000E+00  0.00000000E+00
  0.00000000E+00  0.00000000E+00  0.00000000E+00
  0.00000000E+00  0.00000000E+00  0.00000000E+00
  0.00000000E+00  0.00000000E+00  0.00000000E+00
