Primitive Cell                          
   1.00000000000000     
    21.8018114393180191   -0.0585469073067719    0.0000000000000000
   -10.9515557391650695   18.9760311790234226    0.0000000000000000
     0.0000000000000000    0.0000000000000000   20.0000000000000000
   N    C    O    H 
    18    30    18    12
Direct
  0.4034177295338282  0.6818194686989756  0.5317382255441174
  0.2786213673662488  0.6040114554846099  0.5330611399780310
  0.3254650533315697  0.7281010765749087  0.5319412768321499
  0.5964505316416435  0.3169041581218082  0.4568502856965040
  0.7179893708386942  0.4069580328966680  0.4559393063770045
  0.6867746032940474  0.2861994904067515  0.4553511392745975
  0.9455311429243523  0.5931010442936682  0.4387665081010184
  0.8530070622484018  0.4467335623508504  0.4786683402029723
  0.4109343699292793  0.3590281913226221  0.4393387137941360
  0.5572962651284143  0.4120307424725738  0.4804084850726866
  0.6467609358229680  0.0608016316403166  0.4377519031149291
  0.5916014537824239  0.1517311801175225  0.4783861698602507
  0.9146481385420628  0.3780294428232835  0.5618155011498800
  0.1469101625180258  0.5797795615392971  0.5278261401753070
  0.6271740451124757  0.5421839957176715  0.5637282077666796
  0.4272237468304141  0.5747553479656915  0.5265405652544146
  0.4602809264423584  0.0889972150445999  0.5614621111602460
  0.4325785295797928  0.8590682689784757  0.5271591872959647
  0.3455007321765109  0.6172357173757845  0.5322027069524395
  0.2716579402786294  0.6615124640231045  0.5322295606695633
  0.3565240416081252  0.5541167114281649  0.5272255071925329
  0.1970063386496790  0.6501930074300830  0.5267602339599335
  0.4536243253706971  0.8096697750295760  0.5260611958661627
  0.6485645291130098  0.3845993459977635  0.4568353189089223
  0.7339329276357560  0.3553035211191187  0.4558064586358057
  0.6275264550825668  0.4407850658704575  0.4622751293826184
  0.8117059589603528  0.3767003584584927  0.4607546906550226
  0.5623966839083963  0.1926469208917823  0.4608905411599977
  0.9245292329251029  0.4803440406719091  0.4934766768229863
  0.9714519993346542  0.5514363960964772  0.4746342560497467
  0.0441301832815029  0.5858941912680962  0.4866094969368291
  0.5242001613016427  0.4502280688214171  0.4947859239454928
  0.4532353723028351  0.4266371208667437  0.4751110746306182
  0.4196019504312432  0.4654571929124032  0.4861522946663541
  0.5539840279624073  0.0804918943516810  0.4930278702829725
  0.5789283354938490  0.0343686773977296  0.4739373473801791
  0.5412976858890417  0.9620306435457522  0.4859190495416570
  0.3903201354275012  0.7352193009514920  0.5315114307521682
  0.6187802298481202  0.2701524962575448  0.4561922790264674
  0.0739806209362257  0.5494728750474920  0.5171517804552366
  0.0293890323370789  0.4793815264625820  0.5371662504870898
  0.9567773432432816  0.4467929718100478  0.5271431927844006
  0.4568175487941630  0.5317095494753872  0.5166788660425752
  0.5267948056424245  0.5566177692415906  0.5375388624005240
  0.5585418358183105  0.5160325899837730  0.5283690350651469
  0.4747503925055909  0.9317102435055702  0.5166020973635739
  0.4483833963979151  0.9754673270863066  0.5366769226660111
  0.4878751741665255  0.0477740799655137  0.5267243109499660
  0.1861696872026641  0.6997260670348453  0.5202852637280344
  0.5144612223984311  0.8209190813439022  0.5197299342691082
  0.3064533414659607  0.4935054170749780  0.5227458873414150
  0.8328632737146222  0.3352017071333222  0.4512697147885660
  0.4993866923723900  0.1713457130405587  0.4514804860374539
  0.6695200717497301  0.5034571490254223  0.4527752206912012
  0.9890234595599523  0.6444767426663844  0.4059317382199339
  0.8814565060988286  0.5745348229975846  0.4439609216491505
  0.3605598812233239  0.3517384038369471  0.4050761687957944
  0.4280248877144501  0.3129196069403619  0.4462056777928183
  0.6547966095241122  0.0180272688232179  0.4041576129212174
  0.6922975801104911  0.1245611698646556  0.4434614244878219
  0.9393533317845737  0.3382398709881684  0.5629880289854015
  0.8600876792880783  0.3679134317715693  0.5906798981583492
  0.6676097966315382  0.6066465260024998  0.5654936037809009
  0.6364806898081810  0.4974728854234343  0.5925491669062950
  0.3953814360956898  0.0637340677053473  0.5625472476820761
  0.5044841899209516  0.1434326215407253  0.5904342759791277
  0.0767727297987406  0.6404848982959734  0.4709878961548739
  0.8314683581359432  0.4787035518513250  0.4721813514469702
  0.3650730118669543  0.4439468462882346  0.4697895424007967
  0.5248733301686599  0.3584983901674690  0.4744352505719291
  0.5638470130460291  0.9300099478400128  0.4701213414081025
  0.6454195388781372  0.1735245951465387  0.4720104307105828
  0.0502648093661762  0.4496581882009920  0.5626827765981943
  0.1670755567799915  0.5469540886892901  0.5346545021285110
  0.5570619835664701  0.6071837015706407  0.5630561788983997
  0.4606400679470184  0.6278591055405229  0.5323462372476087
  0.3974822085718159  0.9541405773777640  0.5621765802633689
  0.3792227235199235  0.8384473460232229  0.5338278932221030
 
  0.00000000E+00  0.00000000E+00  0.00000000E+00
  0.00000000E+00  0.00000000E+00  0.00000000E+00
  0.00000000E+00  0.00000000E+00  0.00000000E+00
  0.00000000E+00  0.00000000E+00  0.00000000E+00
  0.00000000E+00  0.00000000E+00  0.00000000E+00
  0.00000000E+00  0.00000000E+00  0.00000000E+00
  0.00000000E+00  0.00000000E+00  0.00000000E+00
  0.00000000E+00  0.00000000E+00  0.00000000E+00
  0.00000000E+00  0.00000000E+00  0.00000000E+00
  0.00000000E+00  0.00000000E+00  0.00000000E+00
  0.00000000E+00  0.00000000E+00  0.00000000E+00
  0.00000000E+00  0.00000000E+00  0.00000000E+00
  0.00000000E+00  0.00000000E+00  0.00000000E+00
  0.00000000E+00  0.00000000E+00  0.00000000E+00
  0.00000000E+00  0.00000000E+00  0.00000000E+00
  0.00000000E+00  0.00000000E+00  0.00000000E+00
  0.00000000E+00  0.00000000E+00  0.00000000E+00
  0.00000000E+00  0.00000000E+00  0.00000000E+00
  0.00000000E+00  0.00000000E+00  0.00000000E+00
  0.00000000E+00  0.00000000E+00  0.00000000E+00
  0.00000000E+00  0.00000000E+00  0.00000000E+00
  0.00000000E+00  0.00000000E+00  0.00000000E+00
  0.00000000E+00  0.00000000E+00  0.00000000E+00
  0.00000000E+00  0.00000000E+00  0.00000000E+00
  0.00000000E+00  0.00000000E+00  0.00000000E+00
  0.00000000E+00  0.00000000E+00  0.00000000E+00
  0.00000000E+00  0.00000000E+00  0.00000000E+00
  0.00000000E+00  0.00000000E+00  0.00000000E+00
  0.00000000E+00  0.00000000E+00  0.00000000E+00
  0.00000000E+00  0.00000000E+00  0.00000000E+00
  0.00000000E+00  0.00000000E+00  0.00000000E+00
  0.00000000E+00  0.00000000E+00  0.00000000E+00
  0.00000000E+00  0.00000000E+00  0.00000000E+00
  0.00000000E+00  0.00000000E+00  0.00000000E+00
  0.00000000E+00  0.00000000E+00  0.00000000E+00
  0.00000000E+00  0.00000000E+00  0.00000000E+00
  0.00000000E+00  0.00000000E+00  0.00000000E+00
  0.00000000E+00  0.00000000E+00  0.00000000E+00
  0.00000000E+00  0.00000000E+00  0.00000000E+00
  0.00000000E+00  0.00000000E+00  0.00000000E+00
  0.00000000E+00  0.00000000E+00  0.00000000E+00
  0.00000000E+00  0.00000000E+00  0.00000000E+00
  0.00000000E+00  0.00000000E+00  0.00000000E+00
  0.00000000E+00  0.00000000E+00  0.00000000E+00
  0.00000000E+00  0.00000000E+00  0.00000000E+00
  0.00000000E+00  0.00000000E+00  0.00000000E+00
  0.00000000E+00  0.00000000E+00  0.00000000E+00
  0.00000000E+00  0.00000000E+00  0.00000000E+00
  0.00000000E+00  0.00000000E+00  0.00000000E+00
  0.00000000E+00  0.00000000E+00  0.00000000E+00
  0.00000000E+00  0.00000000E+00  0.00000000E+00
  0.00000000E+00  0.00000000E+00  0.00000000E+00
  0.00000000E+00  0.00000000E+00  0.00000000E+00
  0.00000000E+00  0.00000000E+00  0.00000000E+00
  0.00000000E+00  0.00000000E+00  0.00000000E+00
  0.00000000E+00  0.00000000E+00  0.00000000E+00
  0.00000000E+00  0.00000000E+00  0.00000000E+00
  0.00000000E+00  0.00000000E+00  0.00000000E+00
  0.00000000E+00  0.00000000E+00  0.00000000E+00
  0.00000000E+00  0.00000000E+00  0.00000000E+00
  0.00000000E+00  0.00000000E+00  0.00000000E+00
  0.00000000E+00  0.00000000E+00  0.00000000E+00
  0.00000000E+00  0.00000000E+00  0.00000000E+00
  0.00000000E+00  0.00000000E+00  0.00000000E+00
  0.00000000E+00  0.00000000E+00  0.00000000E+00
  0.00000000E+00  0.00000000E+00  0.00000000E+00
  0.00000000E+00  0.00000000E+00  0.00000000E+00
  0.00000000E+00  0.00000000E+00  0.00000000E+00
  0.00000000E+00  0.00000000E+00  0.00000000E+00
  0.00000000E+00  0.00000000E+00  0.00000000E+00
  0.00000000E+00  0.00000000E+00  0.00000000E+00
  0.00000000E+00  0.00000000E+00  0.00000000E+00
  0.00000000E+00  0.00000000E+00  0.00000000E+00
  0.00000000E+00  0.00000000E+00  0.00000000E+00
  0.00000000E+00  0.00000000E+00  0.00000000E+00
  0.00000000E+00  0.00000000E+00  0.00000000E+00
  0.00000000E+00  0.00000000E+00  0.00000000E+00
  0.00000000E+00  0.00000000E+00  0.00000000E+00
