Primitive Cell                          
   1.00000000000000     
    10.0956900350894383    3.4381970595698532    0.0000000000000000
     2.6382776985632259   10.7709389531023589    0.0000000000000000
     0.0000000000000000    0.0000000000000000   20.0000000000000000
   C    N    O    H 
    28     6     4    24
Direct
  0.2129626151777515  0.8241986177033951  0.3668779039566914
  0.1703257697508249  0.9657735702604953  0.3781798189848473
  0.0777385761962535  0.0399929637369425  0.4322854641155089
  0.9343343851612858  0.0523419652247128  0.5346750198943369
  0.8338734436782218  0.0190311406183170  0.5604410133669191
  0.7397750365630600  0.0964354607627769  0.6136412091666088
  0.7431513009423583  0.2110350220143360  0.6405588096173602
  0.6327721364873895  0.0605580019796292  0.6439222067265078
  0.2329561499473698  0.0323452815942318  0.3334189797266234
  0.3701274266691783  0.0690507505723232  0.4241938651734927
  0.4742161083242280  0.1311969604290013  0.5171045892430897
  0.3941700482957913  0.1668497372990814  0.4586141398841477
  0.0763105020816894  0.5265646677959950  0.4654259121697066
  0.9155958176406429  0.4683316934751431  0.5251439201855419
  0.9496125905913146  0.5156249181399417  0.4686925993854629
  0.0299044245192235  0.9737719729190744  0.4763739574711536
  0.0764369753753513  0.8306468346430833  0.4642483646729261
  0.1671133137936707  0.7553733098064868  0.4096277640746919
  0.8440999121715507  0.2446105463227255  0.6167581686236545
  0.9406704262826437  0.1634446649112107  0.5648337547187836
  0.8396005243432967  0.3730856907758238  0.6465057009814430
  0.2221234801670846  0.5994246503062186  0.3971719630327399
  0.4371496497332785  0.9314280320217065  0.4500127841355308
  0.5176581204520687  0.8937954102813492  0.5105541368361841
  0.5371900036029871  0.9938204087016445  0.5468810238452235
  0.1631626950345080  0.4920118573705494  0.5224626987429701
  0.1318774141649754  0.4398199704901984  0.5803006254619376
  0.0060335518262065  0.4261989398893462  0.5836188707308310
  0.2811600377498920  0.1161293357054447  0.3674013994430396
  0.1115199149190289  0.5616446147316339  0.4041320988809289
  0.5734248436392448  0.7526928389907823  0.5350686663278665
  0.6115079814462376  0.9621123887936989  0.6057713540804883
  0.2335632418723463  0.3992714457942554  0.6348560820216491
  0.9728870096496323  0.3760195095869250  0.6381329571534593
  0.5598885759486052  0.6663519722430138  0.5002392483511002
  0.6359724902607624  0.7168923647623657  0.5921055024630348
  0.2142665864684119  0.3465751588170960  0.6872467133293938
  0.3418788152046801  0.4138175685258147  0.6294792615650167
  0.0439045639781241  0.1507895196345004  0.4409174706233046
  0.8264383571123162  0.9336187450921116  0.5378328051450723
  0.6650540541071024  0.2754887202474379  0.6803138516036356
  0.7437130786196846  0.4721420283245621  0.6255979760817070
  0.5252491081915522  0.1611080327849521  0.6535097356041035
  0.1496760737364653  0.1030036955259064  0.2960586168336050
  0.2679760509243181  0.5707126025356288  0.3461871701065320
  0.4880665352237230  0.2108255164787565  0.5417856487188430
  0.3455854296083061  0.2744467808464961  0.4383409635686419
  0.2162030759048079  0.2237847301123921  0.3622086476936133
  0.8165266439931429  0.4632108153047696  0.5249695053130736
  0.8768591011982139  0.5451384167039777  0.4250992822911428
  0.0221728065194213  0.6185813045069537  0.3735400164897626
  0.0447266318275723  0.7761101162568806  0.4991570278251771
  0.2871167895747035  0.7649191935984874  0.3250489159364207
  0.0230918487835794  0.1858701204087012  0.5477163891474390
  0.8189469172687183  0.3768503239799017  0.7005554417260953
  0.6754615198074561  0.0107124832077758  0.6931408611869259
  0.3270501212316077  0.9448859681404826  0.3050245067745792
  0.3158517021265652  0.5303290903842992  0.4307624531878389
  0.4249385682813482  0.8498366418081460  0.4268357508165863
  0.6491201229776706  0.8615050446006052  0.6230281122035208
  0.2596991429600806  0.5009363166833438  0.5249029070817457
  0.0485788599104779  0.3446315548361625  0.6760515601097481
 
  0.00000000E+00  0.00000000E+00  0.00000000E+00
  0.00000000E+00  0.00000000E+00  0.00000000E+00
  0.00000000E+00  0.00000000E+00  0.00000000E+00
  0.00000000E+00  0.00000000E+00  0.00000000E+00
  0.00000000E+00  0.00000000E+00  0.00000000E+00
  0.00000000E+00  0.00000000E+00  0.00000000E+00
  0.00000000E+00  0.00000000E+00  0.00000000E+00
  0.00000000E+00  0.00000000E+00  0.00000000E+00
  0.00000000E+00  0.00000000E+00  0.00000000E+00
  0.00000000E+00  0.00000000E+00  0.00000000E+00
  0.00000000E+00  0.00000000E+00  0.00000000E+00
  0.00000000E+00  0.00000000E+00  0.00000000E+00
  0.00000000E+00  0.00000000E+00  0.00000000E+00
  0.00000000E+00  0.00000000E+00  0.00000000E+00
  0.00000000E+00  0.00000000E+00  0.00000000E+00
  0.00000000E+00  0.00000000E+00  0.00000000E+00
  0.00000000E+00  0.00000000E+00  0.00000000E+00
  0.00000000E+00  0.00000000E+00  0.00000000E+00
  0.00000000E+00  0.00000000E+00  0.00000000E+00
  0.00000000E+00  0.00000000E+00  0.00000000E+00
  0.00000000E+00  0.00000000E+00  0.00000000E+00
  0.00000000E+00  0.00000000E+00  0.00000000E+00
  0.00000000E+00  0.00000000E+00  0.00000000E+00
  0.00000000E+00  0.00000000E+00  0.00000000E+00
  0.00000000E+00  0.00000000E+00  0.00000000E+00
  0.00000000E+00  0.00000000E+00  0.00000000E+00
  0.00000000E+00  0.00000000E+00  0.00000000E+00
  0.00000000E+00  0.00000000E+00  0.00000000E+00
  0.00000000E+00  0.00000000E+00  0.00000000E+00
  0.00000000E+00  0.00000000E+00  0.00000000E+00
  0.00000000E+00  0.00000000E+00  0.00000000E+00
  0.00000000E+00  0.00000000E+00  0.00000000E+00
  0.00000000E+00  0.00000000E+00  0.00000000E+00
  0.00000000E+00  0.00000000E+00  0.00000000E+00
  0.00000000E+00  0.00000000E+00  0.00000000E+00
  0.00000000E+00  0.00000000E+00  0.00000000E+00
  0.00000000E+00  0.00000000E+00  0.00000000E+00
  0.00000000E+00  0.00000000E+00  0.00000000E+00
  0.00000000E+00  0.00000000E+00  0.00000000E+00
  0.00000000E+00  0.00000000E+00  0.00000000E+00
  0.00000000E+00  0.00000000E+00  0.00000000E+00
  0.00000000E+00  0.00000000E+00  0.00000000E+00
  0.00000000E+00  0.00000000E+00  0.00000000E+00
  0.00000000E+00  0.00000000E+00  0.00000000E+00
  0.00000000E+00  0.00000000E+00  0.00000000E+00
  0.00000000E+00  0.00000000E+00  0.00000000E+00
  0.00000000E+00  0.00000000E+00  0.00000000E+00
  0.00000000E+00  0.00000000E+00  0.00000000E+00
  0.00000000E+00  0.00000000E+00  0.00000000E+00
  0.00000000E+00  0.00000000E+00  0.00000000E+00
  0.00000000E+00  0.00000000E+00  0.00000000E+00
  0.00000000E+00  0.00000000E+00  0.00000000E+00
  0.00000000E+00  0.00000000E+00  0.00000000E+00
  0.00000000E+00  0.00000000E+00  0.00000000E+00
  0.00000000E+00  0.00000000E+00  0.00000000E+00
  0.00000000E+00  0.00000000E+00  0.00000000E+00
  0.00000000E+00  0.00000000E+00  0.00000000E+00
  0.00000000E+00  0.00000000E+00  0.00000000E+00
  0.00000000E+00  0.00000000E+00  0.00000000E+00
  0.00000000E+00  0.00000000E+00  0.00000000E+00
  0.00000000E+00  0.00000000E+00  0.00000000E+00
  0.00000000E+00  0.00000000E+00  0.00000000E+00
