Primitive Cell                          
   1.00000000000000     
    21.3808927554066095   -0.0298640184974899    0.0000000000000000
   -10.7119569125457090   18.5776997930681524    0.0000000000000000
     0.0000000000000000    0.0000000000000000   20.0000000000000000
   H    N    O    C 
     6    30    12    36
Direct
  0.0486283477198199  0.7527637055788432  0.4484447498785542
  0.7198974891712240  0.9455513311407273  0.4517540798824484
  0.2422154155373519  0.2754555263712248  0.4475583354804655
  0.4141827154063051  0.9110513120146422  0.4524014591962953
  0.5142288412122298  0.5829099649902716  0.4535926476028536
  0.0860502837833081  0.4809406734383828  0.4474765127175573
  0.9685417280913953  0.9171305873626636  0.4385356899761206
  0.0783066576103835  0.0297785845820897  0.4398607453241823
  0.0450454029153704  0.8474666897075380  0.4408547735248831
  0.2077195452191347  0.0338719734659634  0.4383207728819301
  0.8442842540929192  0.7880998892646858  0.4457082413015172
  0.1937615066543614  0.9200221767237480  0.4603419806094706
  0.1488467188238829  0.7374726155946760  0.4975753658654014
  0.2634120485241596  0.8467641554113285  0.4970009285579380
  0.2511440513215817  0.7410633400696014  0.5483635448509716
  0.9652824580555119  0.0263755127377863  0.4398222544570629
  0.6052634746143468  0.8458125752581154  0.5031875829415711
  0.5997890613814576  0.7314290266178105  0.5002557505032215
  0.5066909718607988  0.7432967043308949  0.5536255575297133
  0.2569740778866461  0.3897094735146069  0.5016971337865854
  0.1475678797271343  0.3947064987796125  0.4972532709373354
  0.2518027451361604  0.4878226799107352  0.5513468084242845
  0.8186370056181147  0.9496503369151128  0.4429471263496723
  0.1476743427428460  0.1764758891531955  0.4411575401102965
  0.3874582953494397  0.8226440011039315  0.5976701135739404
  0.4770436600591168  0.8207884238283967  0.6685546473153181
  0.4503803752965183  0.6058810899363465  0.5993470519110460
  0.3575069718518975  0.5149102167081026  0.6680728735450785
  0.1682265615944871  0.5427238240853640  0.5954493389930136
  0.1676357321280975  0.6343531337749013  0.6637239326360245
  0.7435134729405135  0.8016381309956131  0.4652381976154132
  0.0742470321004873  0.2504113899838813  0.4670578395474578
  0.9594216807868605  0.1489577700655644  0.4523632139232276
  0.4829010301790504  0.8779823549552432  0.4929058902653338
  0.4117485728354353  0.5131958589353545  0.4925360136758741
  0.1175773863916731  0.5826659087058346  0.4868562928746982
  0.2318278305788652  0.0696594978572165  0.4896389874031470
  0.2214940527484757  0.0550165654198054  0.3799518542734219
  0.8593966941859321  0.7690917688752066  0.4984156882536652
  0.8485901924730896  0.7692457088137132  0.3884736794778192
  0.1497362160398410  0.6812904561747004  0.6642191293990649
  0.4325902462883349  0.7943849730249752  0.7138084677166532
  0.5428312208737154  0.8424039248297674  0.6721211066954709
  0.3755955153381834  0.5579432891669072  0.7144589185140759
  0.3123747184209407  0.4494736473545444  0.6699653911787422
  0.1884112892511283  0.6137236917600504  0.7115493347799173
  0.9280357147747367  0.1322264007533747  0.5066001302884828
  0.9331713576126148  0.1459353898314717  0.3967898245474828
  0.0409077777606726  0.9577275954403106  0.4387291938820823
  0.0827520185658912  0.9196507130011540  0.4409134478607299
  0.1587776382155113  0.9545650946998450  0.4469369030306751
  0.1915311806572433  0.8088196435225754  0.4869741870097855
  0.0799366095978939  0.8114322642277898  0.4503060402814540
  0.1546393418364786  0.8479984131732081  0.4641549534447620
  0.1820328702971992  0.7066428277406729  0.5279728880062891
  0.2897775554628410  0.8099287606660326  0.5288071563714141
  0.3685518475948371  0.8423270237861118  0.5411534369005793
  0.1474698743556715  0.6275293775717117  0.5383979917435440
  0.0375381701460284  0.0612359340233084  0.4402153634666632
  0.9336136779105573  0.9542598731187155  0.4394918070166725
  0.5411599528532633  0.8123551824796778  0.5337215853814996
  0.6339175810010929  0.8033235014876539  0.4914127059141435
  0.5366736700758707  0.7048515179180797  0.5325795744772108
  0.2870192912154153  0.4536869132791139  0.5321244637600557
  0.1857030629836842  0.3607499799772000  0.4895073712087452
  0.1835210984596074  0.4577464269753406  0.5294006271542244
  0.7477126771240634  0.9146327033365935  0.4535776367247308
  0.1834367179439269  0.2473099559706782  0.4512111724436494
  0.4959758194226822  0.8462880292911947  0.5441015983298740
  0.4515596461320754  0.8296770211716478  0.6014478135582166
  0.3661735880050685  0.4989397326566518  0.5434163543574826
  0.4898475911673543  0.6260666511457416  0.5432964599124475
  0.3931302699529837  0.5419089959591759  0.6016199096971988
  0.1509431217081598  0.5041847961287615  0.5389985880584405
  0.1614266793123988  0.5998255291630556  0.5972069093867702
  0.8536015871793126  0.9123297883428236  0.4434562973235998
  0.7100918736816553  0.8403457326696611  0.4683293535445827
  0.8131298587339799  0.8367174356655767  0.4514950131683477
  0.0752981250262224  0.1410058986643961  0.4441754355185736
  0.1466294815005824  0.2844388159942994  0.4674971592558848
  0.0397139038221894  0.1808109934639575  0.4542511726045930
  0.4221435364102959  0.8814157149305473  0.4926938097356413
  0.4759731199214627  0.5738521561129133  0.4936878155221933
  0.1140528407599959  0.5186143663693201  0.4882118367775021
 
  0.00000000E+00  0.00000000E+00  0.00000000E+00
  0.00000000E+00  0.00000000E+00  0.00000000E+00
  0.00000000E+00  0.00000000E+00  0.00000000E+00
  0.00000000E+00  0.00000000E+00  0.00000000E+00
  0.00000000E+00  0.00000000E+00  0.00000000E+00
  0.00000000E+00  0.00000000E+00  0.00000000E+00
  0.00000000E+00  0.00000000E+00  0.00000000E+00
  0.00000000E+00  0.00000000E+00  0.00000000E+00
  0.00000000E+00  0.00000000E+00  0.00000000E+00
  0.00000000E+00  0.00000000E+00  0.00000000E+00
  0.00000000E+00  0.00000000E+00  0.00000000E+00
  0.00000000E+00  0.00000000E+00  0.00000000E+00
  0.00000000E+00  0.00000000E+00  0.00000000E+00
  0.00000000E+00  0.00000000E+00  0.00000000E+00
  0.00000000E+00  0.00000000E+00  0.00000000E+00
  0.00000000E+00  0.00000000E+00  0.00000000E+00
  0.00000000E+00  0.00000000E+00  0.00000000E+00
  0.00000000E+00  0.00000000E+00  0.00000000E+00
  0.00000000E+00  0.00000000E+00  0.00000000E+00
  0.00000000E+00  0.00000000E+00  0.00000000E+00
  0.00000000E+00  0.00000000E+00  0.00000000E+00
  0.00000000E+00  0.00000000E+00  0.00000000E+00
  0.00000000E+00  0.00000000E+00  0.00000000E+00
  0.00000000E+00  0.00000000E+00  0.00000000E+00
  0.00000000E+00  0.00000000E+00  0.00000000E+00
  0.00000000E+00  0.00000000E+00  0.00000000E+00
  0.00000000E+00  0.00000000E+00  0.00000000E+00
  0.00000000E+00  0.00000000E+00  0.00000000E+00
  0.00000000E+00  0.00000000E+00  0.00000000E+00
  0.00000000E+00  0.00000000E+00  0.00000000E+00
  0.00000000E+00  0.00000000E+00  0.00000000E+00
  0.00000000E+00  0.00000000E+00  0.00000000E+00
  0.00000000E+00  0.00000000E+00  0.00000000E+00
  0.00000000E+00  0.00000000E+00  0.00000000E+00
  0.00000000E+00  0.00000000E+00  0.00000000E+00
  0.00000000E+00  0.00000000E+00  0.00000000E+00
  0.00000000E+00  0.00000000E+00  0.00000000E+00
  0.00000000E+00  0.00000000E+00  0.00000000E+00
  0.00000000E+00  0.00000000E+00  0.00000000E+00
  0.00000000E+00  0.00000000E+00  0.00000000E+00
  0.00000000E+00  0.00000000E+00  0.00000000E+00
  0.00000000E+00  0.00000000E+00  0.00000000E+00
  0.00000000E+00  0.00000000E+00  0.00000000E+00
  0.00000000E+00  0.00000000E+00  0.00000000E+00
  0.00000000E+00  0.00000000E+00  0.00000000E+00
  0.00000000E+00  0.00000000E+00  0.00000000E+00
  0.00000000E+00  0.00000000E+00  0.00000000E+00
  0.00000000E+00  0.00000000E+00  0.00000000E+00
  0.00000000E+00  0.00000000E+00  0.00000000E+00
  0.00000000E+00  0.00000000E+00  0.00000000E+00
  0.00000000E+00  0.00000000E+00  0.00000000E+00
  0.00000000E+00  0.00000000E+00  0.00000000E+00
  0.00000000E+00  0.00000000E+00  0.00000000E+00
  0.00000000E+00  0.00000000E+00  0.00000000E+00
  0.00000000E+00  0.00000000E+00  0.00000000E+00
  0.00000000E+00  0.00000000E+00  0.00000000E+00
  0.00000000E+00  0.00000000E+00  0.00000000E+00
  0.00000000E+00  0.00000000E+00  0.00000000E+00
  0.00000000E+00  0.00000000E+00  0.00000000E+00
  0.00000000E+00  0.00000000E+00  0.00000000E+00
  0.00000000E+00  0.00000000E+00  0.00000000E+00
  0.00000000E+00  0.00000000E+00  0.00000000E+00
  0.00000000E+00  0.00000000E+00  0.00000000E+00
  0.00000000E+00  0.00000000E+00  0.00000000E+00
  0.00000000E+00  0.00000000E+00  0.00000000E+00
  0.00000000E+00  0.00000000E+00  0.00000000E+00
  0.00000000E+00  0.00000000E+00  0.00000000E+00
  0.00000000E+00  0.00000000E+00  0.00000000E+00
  0.00000000E+00  0.00000000E+00  0.00000000E+00
  0.00000000E+00  0.00000000E+00  0.00000000E+00
  0.00000000E+00  0.00000000E+00  0.00000000E+00
  0.00000000E+00  0.00000000E+00  0.00000000E+00
  0.00000000E+00  0.00000000E+00  0.00000000E+00
  0.00000000E+00  0.00000000E+00  0.00000000E+00
  0.00000000E+00  0.00000000E+00  0.00000000E+00
  0.00000000E+00  0.00000000E+00  0.00000000E+00
  0.00000000E+00  0.00000000E+00  0.00000000E+00
  0.00000000E+00  0.00000000E+00  0.00000000E+00
  0.00000000E+00  0.00000000E+00  0.00000000E+00
  0.00000000E+00  0.00000000E+00  0.00000000E+00
  0.00000000E+00  0.00000000E+00  0.00000000E+00
  0.00000000E+00  0.00000000E+00  0.00000000E+00
  0.00000000E+00  0.00000000E+00  0.00000000E+00
  0.00000000E+00  0.00000000E+00  0.00000000E+00
