Primitive Cell                          
   1.00000000000000     
    14.3196094693073466   -0.0000000419376997    0.0000000000000000
    -7.1598046983345700   12.4011455936612141    0.0000000000000000
     0.0000000000000000    0.0000000000000000   20.0000000000000000
   N    C    H 
    12    27    18
Direct
  0.6185732941346203  0.2227742071207572  0.4691690502940986
  0.6042009129861370  0.3814267058653797  0.4691690502940986
  0.7772257928792428  0.3957990870138630  0.4691690502940986
  0.0578878386064261  0.1110868168747814  0.4714321346557639
  0.0531989782683553  0.9421121613935739  0.4714321346557639
  0.8889131831252186  0.9468010217316376  0.4714321346557639
  0.7870133958431538  0.7291274343355383  0.4400913265763435
  0.9421140384923845  0.2129866041568462  0.4400913265763435
  0.2708725656644617  0.0578859615076155  0.4400913265763435
  0.9277823744152300  0.7225589448907073  0.5007203015671351
  0.7947765704754843  0.0722176255847700  0.5007203015671351
  0.2774410551092856  0.2052234295245157  0.5007203015671351
  0.3792646722480200  0.1065780147216344  0.4376697855313978
  0.4237531105140349  0.0489176507488835  0.4003818314105203
  0.3611995243445705  0.9257244819642239  0.4010995628453031
  0.3846544476295151  0.2536690020707866  0.4989649114329993
  0.4420246591414241  0.2091602147776257  0.4682986205860402
  0.3628828262498018  0.9836026913977918  0.3388185923725047
  0.7266979994866816  0.2876174408555556  0.4689102056122891
  0.5609194413688741  0.2733020005133184  0.4689102056122891
  0.7123825591444444  0.4390805586311259  0.4689102056122891
  0.9496922044819058  0.0546160567635638  0.4714244212527632
  0.1049238522816580  0.0503077955180942  0.4714244212527632
  0.9453839432364362  0.8950761477183420  0.4714244212527632
  0.7273133424736073  0.6207353277519800  0.4376697855313978
  0.7671355556362016  0.5579753408585759  0.4682986205860402
  0.8823039906462853  0.7741648463854176  0.4707417663718871
  0.6251645402348487  0.5762468894859651  0.4003818314105203
  0.5645249576196534  0.6388004756554295  0.4010995628453031
  0.6207198651479899  0.6371171737501982  0.3388185923725047
  0.8934219852783656  0.2726866575263927  0.4376697855313978
  0.7908397852223743  0.2328644443637984  0.4682986205860402
  0.8918608557391323  0.1176960093537147  0.4707417663718871
  0.9510823492511165  0.3748354597651513  0.4003818314105203
  0.0742755180357761  0.4354750423803466  0.4010995628453031
  0.0163973086022082  0.3792801348520101  0.3388185923725047
  0.2258351536145824  0.1081391442608677  0.4707417663718871
  0.8690145544412644  0.6153455523704849  0.4989649114329993
  0.7463309979292134  0.1309854455587356  0.4989649114329993
  0.4095422284720556  0.8864862420032580  0.4036993456555038
  0.4293470476002810  0.3322674770610590  0.5234174113284951
  0.5110097363509354  0.0869691649818094  0.3998356404497230
  0.2895898625660891  0.9849922138451390  0.3261750616507015
  0.5733440744262168  0.5875231389671995  0.2968625622181875
  0.4769440135311882  0.5904577715279444  0.4036993456555038
  0.5759594286308740  0.4889902636490646  0.3998356404497230
  0.6954023512790428  0.7104101374339038  0.3261750616507015
  0.6021076371210228  0.7132255611964737  0.4300652618183136
  0.9130308350181906  0.4240405713691260  0.3998356404497230
  0.0141790645409756  0.4266559255737832  0.2968625622181875
  0.0150077861548610  0.3045976487209572  0.3261750616507015
  0.1111179240754510  0.3978923628789772  0.4300652618183136
  0.1135137579967420  0.5230559864688118  0.4036993456555038
  0.4124768610328005  0.9858209354590244  0.2968625622181875
  0.2867744388035263  0.8888820759245490  0.4300652618183136
  0.9029204294607851  0.5706529523997190  0.5234174113284951
  0.6677325229389410  0.0970795705392220  0.5234174113284951
 
  0.00000000E+00  0.00000000E+00  0.00000000E+00
  0.00000000E+00  0.00000000E+00  0.00000000E+00
  0.00000000E+00  0.00000000E+00  0.00000000E+00
  0.00000000E+00  0.00000000E+00  0.00000000E+00
  0.00000000E+00  0.00000000E+00  0.00000000E+00
  0.00000000E+00  0.00000000E+00  0.00000000E+00
  0.00000000E+00  0.00000000E+00  0.00000000E+00
  0.00000000E+00  0.00000000E+00  0.00000000E+00
  0.00000000E+00  0.00000000E+00  0.00000000E+00
  0.00000000E+00  0.00000000E+00  0.00000000E+00
  0.00000000E+00  0.00000000E+00  0.00000000E+00
  0.00000000E+00  0.00000000E+00  0.00000000E+00
  0.00000000E+00  0.00000000E+00  0.00000000E+00
  0.00000000E+00  0.00000000E+00  0.00000000E+00
  0.00000000E+00  0.00000000E+00  0.00000000E+00
  0.00000000E+00  0.00000000E+00  0.00000000E+00
  0.00000000E+00  0.00000000E+00  0.00000000E+00
  0.00000000E+00  0.00000000E+00  0.00000000E+00
  0.00000000E+00  0.00000000E+00  0.00000000E+00
  0.00000000E+00  0.00000000E+00  0.00000000E+00
  0.00000000E+00  0.00000000E+00  0.00000000E+00
  0.00000000E+00  0.00000000E+00  0.00000000E+00
  0.00000000E+00  0.00000000E+00  0.00000000E+00
  0.00000000E+00  0.00000000E+00  0.00000000E+00
  0.00000000E+00  0.00000000E+00  0.00000000E+00
  0.00000000E+00  0.00000000E+00  0.00000000E+00
  0.00000000E+00  0.00000000E+00  0.00000000E+00
  0.00000000E+00  0.00000000E+00  0.00000000E+00
  0.00000000E+00  0.00000000E+00  0.00000000E+00
  0.00000000E+00  0.00000000E+00  0.00000000E+00
  0.00000000E+00  0.00000000E+00  0.00000000E+00
  0.00000000E+00  0.00000000E+00  0.00000000E+00
  0.00000000E+00  0.00000000E+00  0.00000000E+00
  0.00000000E+00  0.00000000E+00  0.00000000E+00
  0.00000000E+00  0.00000000E+00  0.00000000E+00
  0.00000000E+00  0.00000000E+00  0.00000000E+00
  0.00000000E+00  0.00000000E+00  0.00000000E+00
  0.00000000E+00  0.00000000E+00  0.00000000E+00
  0.00000000E+00  0.00000000E+00  0.00000000E+00
  0.00000000E+00  0.00000000E+00  0.00000000E+00
  0.00000000E+00  0.00000000E+00  0.00000000E+00
  0.00000000E+00  0.00000000E+00  0.00000000E+00
  0.00000000E+00  0.00000000E+00  0.00000000E+00
  0.00000000E+00  0.00000000E+00  0.00000000E+00
  0.00000000E+00  0.00000000E+00  0.00000000E+00
  0.00000000E+00  0.00000000E+00  0.00000000E+00
  0.00000000E+00  0.00000000E+00  0.00000000E+00
  0.00000000E+00  0.00000000E+00  0.00000000E+00
  0.00000000E+00  0.00000000E+00  0.00000000E+00
  0.00000000E+00  0.00000000E+00  0.00000000E+00
  0.00000000E+00  0.00000000E+00  0.00000000E+00
  0.00000000E+00  0.00000000E+00  0.00000000E+00
  0.00000000E+00  0.00000000E+00  0.00000000E+00
  0.00000000E+00  0.00000000E+00  0.00000000E+00
  0.00000000E+00  0.00000000E+00  0.00000000E+00
  0.00000000E+00  0.00000000E+00  0.00000000E+00
  0.00000000E+00  0.00000000E+00  0.00000000E+00
