Primitive Cell                          
   1.00000000000000     
    29.1664067530136357    0.0403208256632624    0.0000000000000000
   -14.5473098326519210   25.4189809888136438    0.0000000000000000
     0.0000000000000000    0.0000000000000000   20.0000000000000000
   O    N    H    C 
     6    12    30    48
Direct
  0.2267832973472323  0.5327114138372480  0.5361896667429846
  0.4703264082011032  0.6930231833933362  0.5338843176343744
  0.3080096156718994  0.7760303017966592  0.5376790674320446
  0.7857489452073878  0.4593737313892490  0.4470878872248036
  0.5386340394161380  0.3214916304488895  0.4526880211071642
  0.6781431881556372  0.2129922514735298  0.4532959238146432
  0.3844344496129821  0.7108463139987720  0.5433853274021203
  0.2911211408553172  0.6733298553194444  0.5436533449700676
  0.3292577256128340  0.6180660483744305  0.5430171801293113
  0.6159107189453223  0.2919386354614062  0.4539972098918028
  0.7074605762153396  0.3191697834986016  0.4538836472956334
  0.6796061690630566  0.3829545933717213  0.4528431582866403
  0.5904146387299321  0.1921629928026150  0.4652922657223044
  0.8078393054378878  0.3938207165122023  0.4630652701085722
  0.6048923895626501  0.4088798201353967  0.4633737325332206
  0.3984653320070635  0.8066343566254517  0.5418523808996980
  0.1950176182001613  0.5916672646088941  0.5396877972983987
  0.4106582817386624  0.6030857426951002  0.5383925755833232
  0.5769833463437024  0.0292317303047227  0.4672627477085456
  0.6278261779940095  0.1247515706373719  0.4476967275506141
  0.3513254400256898  0.8644244781773551  0.5115387968318501
  0.3991483409646861  0.9602250114672373  0.4915569836479179
  0.5690643718754629  0.2112651931470921  0.4672382247708171
  0.9703295902215388  0.5434476770244387  0.4588529934630614
  0.8741954868762321  0.4975681750525567  0.4403997048304333
  0.1387173209199233  0.4871351268146427  0.5107547937794976
  0.0427115862444936  0.4381595924986570  0.4894658537695733
  0.7892012300865687  0.3537327412667608  0.4668815663299881
  0.4550411858908276  0.4231424784197273  0.4648081282590937
  0.5000093761950168  0.3718475126089729  0.4464373889637940
  0.5151005847953201  0.6489980081917892  0.5066152190603788
  0.5630184162629632  0.6005441509572265  0.4863709322165946
  0.6452440933978920  0.4300637286730549  0.4650341105015769
  0.5462342357960353  0.9665211153063566  0.5407613988651079
  0.4989457230679548  0.8707540754223970  0.5570209671242310
  0.4923233541560279  0.1378423721183353  0.5056893981262505
  0.4424273729194823  0.0428822008082363  0.5285066452976324
  0.4230910993491506  0.7911458763866506  0.5452785606371222
  0.0332409667300766  0.5775461443878314  0.5329800064031929
  0.1292313175027999  0.6269861504353713  0.5506324991237648
  0.8641084734836326  0.3524390669191746  0.5056075712810255
  0.9597006336874401  0.3987597043690698  0.5271256016673789
  0.2100081165133929  0.6314405003272086  0.5433788079726654
  0.4230370075132086  0.4549602497343130  0.5369698714215261
  0.3745747587432788  0.5028505556022580  0.5534221860004536
  0.6481496926033046  0.5070864603836540  0.5016098253059269
  0.6028177021361572  0.5574627062415587  0.5232560673912090
  0.3706848573288966  0.5789317450872105  0.5426929215150906
  0.3768133361792110  0.6619830083050644  0.5426294819596436
  0.2879002884370010  0.6258746446558945  0.5431958334923976
  0.3462670219690622  0.7690779730629629  0.5411716901251253
  0.4252784725018444  0.6552431934921898  0.5382138399121459
  0.6296772440824583  0.3427913821709723  0.4536335514235645
  0.7168283822263604  0.3689682982993290  0.4529381442447189
  0.6434757556968620  0.2252530805575361  0.4570220802405842
  0.5853620625981719  0.3559379523743686  0.4559607122046430
  0.5636287242130607  0.1377738311712235  0.4754959348990937
  0.5058122950554846  0.0282057518471959  0.5003202122207711
  0.5583211444942791  0.0528680564359405  0.4772871330226209
  0.5872749125139762  0.1065922308906124  0.4651682920260996
  0.3939534574703742  0.8870159386412979  0.5174718768251552
  0.4214017068851206  0.9411268688757914  0.5070684382944606
  0.8625912258045858  0.4220132876072498  0.4720699342578598
  0.9728720788698837  0.4752094146439205  0.4955114054068801
  0.9472095442220763  0.5016892301880702  0.4707109223026933
  0.8931255042201727  0.4762017743207210  0.4592208746749336
  0.1153957794888782  0.5066445891785349  0.5151858158007556
  0.0611621169338434  0.4794235415927730  0.5040215393719407
  0.5770418876639098  0.4358660729222521  0.4729319343843628
  0.5249267264461395  0.4942608098867183  0.4964015173813152
  0.4973163956417110  0.4416793319360792  0.4744755441849904
  0.5222522486595764  0.4124444587217440  0.4630472725981960
  0.4952115489309605  0.6065525632105775  0.5127787323486217
  0.5218568340588732  0.5787505680762521  0.5022488044660207
  0.3401009142720000  0.7143318707884987  0.5437388805580312
  0.2331869301474185  0.5774936804430837  0.5397544400897232
  0.6564429855653700  0.2823141887795018  0.4543086695368856
  0.7739994838684581  0.4130014981814085  0.4534782592020790
  0.5108581909537548  0.1138048525715831  0.4973009578560266
  0.4827156148196892  0.0601219364170689  0.5096799524047810
  0.4766486421440277  0.9711909975582245  0.5136548337541598
  0.5036855870478760  0.9445166022723583  0.5327096275865841
  0.4771240688273082  0.8906014168161960  0.5425866935422192
  0.4220312674781397  0.8610973637815107  0.5343754348686289
  0.8876088342780406  0.3945177293450257  0.4954017806557900
  0.9416436222423883  0.4207546021628019  0.5070555346023369
  0.0301353474915231  0.5038629252250928  0.5088243446471452
  0.0560122227752800  0.5575094098942159  0.5264998265007250
  0.1100529803058947  0.5854114238813892  0.5371558374415457
  0.1404948692540984  0.5604670968065832  0.5310669353107613
  0.6056046806669642  0.4886959878431085  0.4935823796325920
  0.5799010859550577  0.5171166417667692  0.5052954902901448
  0.4969417640415728  0.5237405670830242  0.5092943946799053
  0.4434207226235429  0.4973098450366251  0.5286530664371867
  0.4160688185592960  0.5242235484057787  0.5386377697718743
  0.4414599718126624  0.5790972273606485  0.5302662910178242
 
  0.00000000E+00  0.00000000E+00  0.00000000E+00
  0.00000000E+00  0.00000000E+00  0.00000000E+00
  0.00000000E+00  0.00000000E+00  0.00000000E+00
  0.00000000E+00  0.00000000E+00  0.00000000E+00
  0.00000000E+00  0.00000000E+00  0.00000000E+00
  0.00000000E+00  0.00000000E+00  0.00000000E+00
  0.00000000E+00  0.00000000E+00  0.00000000E+00
  0.00000000E+00  0.00000000E+00  0.00000000E+00
  0.00000000E+00  0.00000000E+00  0.00000000E+00
  0.00000000E+00  0.00000000E+00  0.00000000E+00
  0.00000000E+00  0.00000000E+00  0.00000000E+00
  0.00000000E+00  0.00000000E+00  0.00000000E+00
  0.00000000E+00  0.00000000E+00  0.00000000E+00
  0.00000000E+00  0.00000000E+00  0.00000000E+00
  0.00000000E+00  0.00000000E+00  0.00000000E+00
  0.00000000E+00  0.00000000E+00  0.00000000E+00
  0.00000000E+00  0.00000000E+00  0.00000000E+00
  0.00000000E+00  0.00000000E+00  0.00000000E+00
  0.00000000E+00  0.00000000E+00  0.00000000E+00
  0.00000000E+00  0.00000000E+00  0.00000000E+00
  0.00000000E+00  0.00000000E+00  0.00000000E+00
  0.00000000E+00  0.00000000E+00  0.00000000E+00
  0.00000000E+00  0.00000000E+00  0.00000000E+00
  0.00000000E+00  0.00000000E+00  0.00000000E+00
  0.00000000E+00  0.00000000E+00  0.00000000E+00
  0.00000000E+00  0.00000000E+00  0.00000000E+00
  0.00000000E+00  0.00000000E+00  0.00000000E+00
  0.00000000E+00  0.00000000E+00  0.00000000E+00
  0.00000000E+00  0.00000000E+00  0.00000000E+00
  0.00000000E+00  0.00000000E+00  0.00000000E+00
  0.00000000E+00  0.00000000E+00  0.00000000E+00
  0.00000000E+00  0.00000000E+00  0.00000000E+00
  0.00000000E+00  0.00000000E+00  0.00000000E+00
  0.00000000E+00  0.00000000E+00  0.00000000E+00
  0.00000000E+00  0.00000000E+00  0.00000000E+00
  0.00000000E+00  0.00000000E+00  0.00000000E+00
  0.00000000E+00  0.00000000E+00  0.00000000E+00
  0.00000000E+00  0.00000000E+00  0.00000000E+00
  0.00000000E+00  0.00000000E+00  0.00000000E+00
  0.00000000E+00  0.00000000E+00  0.00000000E+00
  0.00000000E+00  0.00000000E+00  0.00000000E+00
  0.00000000E+00  0.00000000E+00  0.00000000E+00
  0.00000000E+00  0.00000000E+00  0.00000000E+00
  0.00000000E+00  0.00000000E+00  0.00000000E+00
  0.00000000E+00  0.00000000E+00  0.00000000E+00
  0.00000000E+00  0.00000000E+00  0.00000000E+00
  0.00000000E+00  0.00000000E+00  0.00000000E+00
  0.00000000E+00  0.00000000E+00  0.00000000E+00
  0.00000000E+00  0.00000000E+00  0.00000000E+00
  0.00000000E+00  0.00000000E+00  0.00000000E+00
  0.00000000E+00  0.00000000E+00  0.00000000E+00
  0.00000000E+00  0.00000000E+00  0.00000000E+00
  0.00000000E+00  0.00000000E+00  0.00000000E+00
  0.00000000E+00  0.00000000E+00  0.00000000E+00
  0.00000000E+00  0.00000000E+00  0.00000000E+00
  0.00000000E+00  0.00000000E+00  0.00000000E+00
  0.00000000E+00  0.00000000E+00  0.00000000E+00
  0.00000000E+00  0.00000000E+00  0.00000000E+00
  0.00000000E+00  0.00000000E+00  0.00000000E+00
  0.00000000E+00  0.00000000E+00  0.00000000E+00
  0.00000000E+00  0.00000000E+00  0.00000000E+00
  0.00000000E+00  0.00000000E+00  0.00000000E+00
  0.00000000E+00  0.00000000E+00  0.00000000E+00
  0.00000000E+00  0.00000000E+00  0.00000000E+00
  0.00000000E+00  0.00000000E+00  0.00000000E+00
  0.00000000E+00  0.00000000E+00  0.00000000E+00
  0.00000000E+00  0.00000000E+00  0.00000000E+00
  0.00000000E+00  0.00000000E+00  0.00000000E+00
  0.00000000E+00  0.00000000E+00  0.00000000E+00
  0.00000000E+00  0.00000000E+00  0.00000000E+00
  0.00000000E+00  0.00000000E+00  0.00000000E+00
  0.00000000E+00  0.00000000E+00  0.00000000E+00
  0.00000000E+00  0.00000000E+00  0.00000000E+00
  0.00000000E+00  0.00000000E+00  0.00000000E+00
  0.00000000E+00  0.00000000E+00  0.00000000E+00
  0.00000000E+00  0.00000000E+00  0.00000000E+00
  0.00000000E+00  0.00000000E+00  0.00000000E+00
  0.00000000E+00  0.00000000E+00  0.00000000E+00
  0.00000000E+00  0.00000000E+00  0.00000000E+00
  0.00000000E+00  0.00000000E+00  0.00000000E+00
  0.00000000E+00  0.00000000E+00  0.00000000E+00
  0.00000000E+00  0.00000000E+00  0.00000000E+00
  0.00000000E+00  0.00000000E+00  0.00000000E+00
  0.00000000E+00  0.00000000E+00  0.00000000E+00
  0.00000000E+00  0.00000000E+00  0.00000000E+00
  0.00000000E+00  0.00000000E+00  0.00000000E+00
  0.00000000E+00  0.00000000E+00  0.00000000E+00
  0.00000000E+00  0.00000000E+00  0.00000000E+00
  0.00000000E+00  0.00000000E+00  0.00000000E+00
  0.00000000E+00  0.00000000E+00  0.00000000E+00
  0.00000000E+00  0.00000000E+00  0.00000000E+00
  0.00000000E+00  0.00000000E+00  0.00000000E+00
  0.00000000E+00  0.00000000E+00  0.00000000E+00
  0.00000000E+00  0.00000000E+00  0.00000000E+00
  0.00000000E+00  0.00000000E+00  0.00000000E+00
  0.00000000E+00  0.00000000E+00  0.00000000E+00
