Primitive Cell                          
   1.00000000000000     
    28.7399026283133097    0.0589996168074488    0.0000000000000000
   -14.3168842886080068   24.7462145891796617    0.0000000000000000
     0.0000000000000000    0.0000000000000000   20.0000000000000000
   N    H    C 
    27    45    72
Direct
  0.1635090166142490  0.5423692125289961  0.4779308576288415
  0.1612665327315739  0.6237045557346050  0.4911483894782691
  0.0731181159943972  0.4557121318061021  0.4321305343301702
  0.2196214916374117  0.6072903226085273  0.5579875313779894
  0.2544146771724982  0.6835389506954428  0.6631349633415979
  0.4186264186558617  0.8714107587667073  0.4953192723441333
  0.4285068931846325  0.8166913021420825  0.5765053378603255
  0.4172643493303028  0.5422570718307256  0.4821184757120918
  0.4273297767283424  0.6058375224966568  0.5651566965552277
  0.4598789622994204  0.7698715346205987  0.6749846241129518
  0.3414341757420445  0.5549159810937709  0.6549863136731062
  0.5017157834788151  0.8732821339491394  0.5064727468494681
  0.5016164493981137  0.6214948916842786  0.4981862827302805
  0.8877430615479227  0.4890571526758762  0.5095659143752584
  0.8879813283213593  0.4062497954235909  0.5025546424176852
  0.8328663058440924  0.4168550315246691  0.5820566745669069
  0.6426858525632682  0.1477549564774776  0.4907562950404056
  0.5605394799222125  0.1484592382795640  0.4828037666873826
  0.6267472510707108  0.2048317684061161  0.5612196744221762
  0.5545740935659751  0.4006799116892665  0.4885107599347691
  0.6362551416535638  0.4833659521779907  0.5015944543973774
  0.6171550208669458  0.4089472539146755  0.5712640247713736
  0.7911274154038708  0.3326685792170068  0.6736567753648472
  0.5743871549966286  0.2342156370606716  0.6573702633116767
  0.6903018643599026  0.4388243553127680  0.6746974391205214
  0.4208141812786579  0.9583689051186539  0.4403263443706749
  0.4182409359014301  0.4543309917238716  0.4360615488002253
  0.0760282138328776  0.6154354661416690  0.4702201314930576
  0.0503473782658972  0.4150499662437781  0.4356888445578093
  0.1133975455373530  0.4736496691576590  0.4419561501709595
  0.2828308605211589  0.6943095435680249  0.6991573055220428
  0.2341383585992602  0.6431080277004710  0.6537351850943409
  0.2532011405101287  0.5591590521015419  0.6336134998012284
  0.2321883120758557  0.7222569241162589  0.4468047554808621
  0.2371545992765220  0.5175610520026055  0.4247178527074098
  0.3473056897919875  0.7728100986705897  0.6482931433104682
  0.4588671398325985  0.6790956097633014  0.6506422638353868
  0.4401608851230705  0.7383356387183682  0.7068257363183221
  0.4405688700253094  0.7910370325350158  0.6659436903171638
  0.3265569244573001  0.5676860677873918  0.6923313090495000
  0.3822853515174813  0.5762480351258006  0.6514487206829571
  0.3988823209945451  0.9191181163270272  0.4560418292773392
  0.3968862645450244  0.4732192333387317  0.4473262543798171
  0.3195241906928530  0.8088178681164209  0.4481874449125485
  0.3247448459099047  0.5193829585662755  0.4297301607560016
  0.9760101928361848  0.5684453888778265  0.4784279361151675
  0.5779384202580857  0.9568507176744419  0.4749599263878608
  0.6320968505517257  0.0573711663371768  0.4673544745126179
  0.5767879535744456  0.6122894931920300  0.4688892147954817
  0.6288925873187381  0.5638088600242028  0.4702392747439674
  0.7018303479303825  0.2425455361340667  0.6470991937618251
  0.7609139699699412  0.3180658599801944  0.7076734061153616
  0.8107992377606550  0.3736336330563788  0.6683539544063493
  0.5732212243492327  0.3250428753839572  0.6420922256009050
  0.5869165536575309  0.2611504064080208  0.6955858304280724
  0.5972048330947501  0.2163551924773088  0.6512943507437683
  0.7829546230359554  0.4430225318699001  0.6591717297589028
  0.7012990029352437  0.4191553912793680  0.7077154630875881
  0.6506274665443001  0.4182234832631906  0.6617839785700426
  0.9696204062315772  0.4159673412306049  0.4529886085751116
  0.4863711401074653  0.0633421593130379  0.4436918482924312
  0.4037288928350904  0.9819220721454087  0.4403577666371916
  0.4816664388653820  0.4128769288480427  0.4477796561423801
  0.4000213516850906  0.4136011448140451  0.4388489203334842
  0.5387132455460346  0.8124066254307323  0.4675672056413873
  0.5410304545581468  0.7262598411385355  0.4614937472536695
  0.8285992551598511  0.3104882960726414  0.4567549084557001
  0.7449555328635142  0.2205513822505907  0.4482311514631476
  0.5340616093544810  0.2185960611088760  0.4335830073371270
  0.5287487834887656  0.3033042160286925  0.4341348672134373
  0.7354913513937262  0.5230900942001497  0.4703603940733672
  0.8250217546796392  0.5284656179902498  0.4718079831506543
  0.1370077981421147  0.5707271213655218  0.4740669914079447
  0.0520481646846420  0.5717878462862487  0.4644459488700363
  0.0494816054632139  0.4857165381849597  0.4467161392678776
  0.0800372243644745  0.5429741139774436  0.4573062037326281
  0.2041267144514620  0.5621719623806740  0.5220718944522744
  0.2032980041481522  0.6406076819865163  0.5319680087155518
  0.2715339719144083  0.7148429423082518  0.6058729530424500
  0.2409880186304605  0.6983845550557888  0.5455196858124509
  0.2405035561985116  0.5395798679278911  0.5291118127770460
  0.2672858290929412  0.5470906123042312  0.5897967533357118
  0.2567385660748656  0.7349854062071159  0.4919925330232005
  0.2582535850126391  0.5241695019845523  0.4721130341351270
  0.3984340993869040  0.8316212246574750  0.5408811191589251
  0.4729885283138486  0.8970340426635062  0.4882720106234757
  0.4772829030822123  0.8319704657941429  0.5491031595222680
  0.4770418429742804  0.6385254581645228  0.5398512663347717
  0.4718123665724008  0.5691825474039121  0.4785186819471008
  0.3969087013626762  0.5617769194596747  0.5277525940664773
  0.3396173104861120  0.7954213906350418  0.5482237453999588
  0.3206534282745679  0.7632027557832757  0.6053638153656280
  0.4794049139221030  0.7097568402922647  0.6122640861472846
  0.4791856124780836  0.7584898890900149  0.6176653069168552
  0.3158221757328761  0.5469811673337048  0.5940815484054980
  0.3384329930954451  0.5402759910820478  0.5337515294218917
  0.3054597863568986  0.7834949217205320  0.4926692171559210
  0.3072626693871285  0.5252293542175579  0.4751840749363367
  0.8470586234852533  0.4647387146712347  0.5530809939719390
  0.9114506032906178  0.4600139988642127  0.4932056312607571
  0.8480328488420810  0.3859153034823635  0.5477519142913323
  0.6596409714991864  0.1894184542302426  0.5331314180586020
  0.5899393015631063  0.1238182650384516  0.4753936534851135
  0.5806792691238343  0.1891626970708700  0.5270446128427579
  0.5733496973424650  0.3792578803615498  0.5330858495136823
  0.5844218881946475  0.4550285415650990  0.4828599202665131
  0.6515350726286400  0.4582037713671809  0.5458437932633373
  0.9968032320956510  0.5460001539075705  0.4693537937437355
  0.5584877298408344  0.9806591084971430  0.4660460456695645
  0.5886158680420905  0.0362159732722205  0.4619786880313015
  0.5565924613257494  0.5686680962478832  0.4623187089596428
  0.5855603546935271  0.5420603616308881  0.4632662290780090
  0.4982884528630080  0.6964900064554058  0.5551805420829012
  0.4974126403299763  0.7942558703016473  0.5615888205132293
  0.7173438279159043  0.2269673875938025  0.5468883987916371
  0.7312330384520820  0.2558697632035702  0.6067254860385560
  0.7787996518779039  0.3054113459904926  0.6134602351532692
  0.8124251722052165  0.3271457975089689  0.5559419249784625
  0.5523907099596741  0.3202620402414382  0.5381370000989918
  0.5617850926145991  0.3001610467459557  0.5971185043766170
  0.5642352481291795  0.2525216010808791  0.5981349760304298
  0.5575705828542468  0.2247779794085574  0.5364425041096013
  0.8086951996445677  0.4843016318019764  0.5650327370074066
  0.7739416591841888  0.4634949689933521  0.6195581538075956
  0.7239782136620150  0.4608424658679979  0.6203527544359346
  0.7085711544998219  0.4793666840123691  0.5626398158745261
  0.9672800012373202  0.4889205904445078  0.4683803028172804
  0.9931864179522378  0.4599514639038276  0.4540851491271596
  0.5616978494978611  0.0661587142125128  0.4570427462630917
  0.5063284981327598  0.0394922445497983  0.4476865074031480
  0.4749905382734454  0.9826582606627667  0.4497548337152537
  0.5016629648626392  0.9526902356243809  0.4642950828026997
  0.5575771272624763  0.4849780603133524  0.4610897924679520
  0.5024324759187095  0.4568758492384006  0.4497913513033609
  0.4722611297317059  0.4835213365297548  0.4469198443339906
  0.4998109771595907  0.5407120056034813  0.4583441717094772
  0.5236210845241658  0.7838468135525076  0.5090726094830700
  0.5249194631849363  0.7358442417173805  0.5053964783977420
  0.8016675267721567  0.2938269876619870  0.4995446375316135
  0.7550131899005876  0.2437360388196552  0.4944820893571844
  0.5403139523470131  0.2411393427772026  0.4799195922189341
  0.5371837258766661  0.2883075686808212  0.4799900779244126
  0.7473973741292426  0.5076987846501453  0.5130583559743584
  0.7973516651135810  0.5108408579068993  0.5136506706991497
 
  0.00000000E+00  0.00000000E+00  0.00000000E+00
  0.00000000E+00  0.00000000E+00  0.00000000E+00
  0.00000000E+00  0.00000000E+00  0.00000000E+00
  0.00000000E+00  0.00000000E+00  0.00000000E+00
  0.00000000E+00  0.00000000E+00  0.00000000E+00
  0.00000000E+00  0.00000000E+00  0.00000000E+00
  0.00000000E+00  0.00000000E+00  0.00000000E+00
  0.00000000E+00  0.00000000E+00  0.00000000E+00
  0.00000000E+00  0.00000000E+00  0.00000000E+00
  0.00000000E+00  0.00000000E+00  0.00000000E+00
  0.00000000E+00  0.00000000E+00  0.00000000E+00
  0.00000000E+00  0.00000000E+00  0.00000000E+00
  0.00000000E+00  0.00000000E+00  0.00000000E+00
  0.00000000E+00  0.00000000E+00  0.00000000E+00
  0.00000000E+00  0.00000000E+00  0.00000000E+00
  0.00000000E+00  0.00000000E+00  0.00000000E+00
  0.00000000E+00  0.00000000E+00  0.00000000E+00
  0.00000000E+00  0.00000000E+00  0.00000000E+00
  0.00000000E+00  0.00000000E+00  0.00000000E+00
  0.00000000E+00  0.00000000E+00  0.00000000E+00
  0.00000000E+00  0.00000000E+00  0.00000000E+00
  0.00000000E+00  0.00000000E+00  0.00000000E+00
  0.00000000E+00  0.00000000E+00  0.00000000E+00
  0.00000000E+00  0.00000000E+00  0.00000000E+00
  0.00000000E+00  0.00000000E+00  0.00000000E+00
  0.00000000E+00  0.00000000E+00  0.00000000E+00
  0.00000000E+00  0.00000000E+00  0.00000000E+00
  0.00000000E+00  0.00000000E+00  0.00000000E+00
  0.00000000E+00  0.00000000E+00  0.00000000E+00
  0.00000000E+00  0.00000000E+00  0.00000000E+00
  0.00000000E+00  0.00000000E+00  0.00000000E+00
  0.00000000E+00  0.00000000E+00  0.00000000E+00
  0.00000000E+00  0.00000000E+00  0.00000000E+00
  0.00000000E+00  0.00000000E+00  0.00000000E+00
  0.00000000E+00  0.00000000E+00  0.00000000E+00
  0.00000000E+00  0.00000000E+00  0.00000000E+00
  0.00000000E+00  0.00000000E+00  0.00000000E+00
  0.00000000E+00  0.00000000E+00  0.00000000E+00
  0.00000000E+00  0.00000000E+00  0.00000000E+00
  0.00000000E+00  0.00000000E+00  0.00000000E+00
  0.00000000E+00  0.00000000E+00  0.00000000E+00
  0.00000000E+00  0.00000000E+00  0.00000000E+00
  0.00000000E+00  0.00000000E+00  0.00000000E+00
  0.00000000E+00  0.00000000E+00  0.00000000E+00
  0.00000000E+00  0.00000000E+00  0.00000000E+00
  0.00000000E+00  0.00000000E+00  0.00000000E+00
  0.00000000E+00  0.00000000E+00  0.00000000E+00
  0.00000000E+00  0.00000000E+00  0.00000000E+00
  0.00000000E+00  0.00000000E+00  0.00000000E+00
  0.00000000E+00  0.00000000E+00  0.00000000E+00
  0.00000000E+00  0.00000000E+00  0.00000000E+00
  0.00000000E+00  0.00000000E+00  0.00000000E+00
  0.00000000E+00  0.00000000E+00  0.00000000E+00
  0.00000000E+00  0.00000000E+00  0.00000000E+00
  0.00000000E+00  0.00000000E+00  0.00000000E+00
  0.00000000E+00  0.00000000E+00  0.00000000E+00
  0.00000000E+00  0.00000000E+00  0.00000000E+00
  0.00000000E+00  0.00000000E+00  0.00000000E+00
  0.00000000E+00  0.00000000E+00  0.00000000E+00
  0.00000000E+00  0.00000000E+00  0.00000000E+00
  0.00000000E+00  0.00000000E+00  0.00000000E+00
  0.00000000E+00  0.00000000E+00  0.00000000E+00
  0.00000000E+00  0.00000000E+00  0.00000000E+00
  0.00000000E+00  0.00000000E+00  0.00000000E+00
  0.00000000E+00  0.00000000E+00  0.00000000E+00
  0.00000000E+00  0.00000000E+00  0.00000000E+00
  0.00000000E+00  0.00000000E+00  0.00000000E+00
  0.00000000E+00  0.00000000E+00  0.00000000E+00
  0.00000000E+00  0.00000000E+00  0.00000000E+00
  0.00000000E+00  0.00000000E+00  0.00000000E+00
  0.00000000E+00  0.00000000E+00  0.00000000E+00
  0.00000000E+00  0.00000000E+00  0.00000000E+00
  0.00000000E+00  0.00000000E+00  0.00000000E+00
  0.00000000E+00  0.00000000E+00  0.00000000E+00
  0.00000000E+00  0.00000000E+00  0.00000000E+00
  0.00000000E+00  0.00000000E+00  0.00000000E+00
  0.00000000E+00  0.00000000E+00  0.00000000E+00
  0.00000000E+00  0.00000000E+00  0.00000000E+00
  0.00000000E+00  0.00000000E+00  0.00000000E+00
  0.00000000E+00  0.00000000E+00  0.00000000E+00
  0.00000000E+00  0.00000000E+00  0.00000000E+00
  0.00000000E+00  0.00000000E+00  0.00000000E+00
  0.00000000E+00  0.00000000E+00  0.00000000E+00
  0.00000000E+00  0.00000000E+00  0.00000000E+00
  0.00000000E+00  0.00000000E+00  0.00000000E+00
  0.00000000E+00  0.00000000E+00  0.00000000E+00
  0.00000000E+00  0.00000000E+00  0.00000000E+00
  0.00000000E+00  0.00000000E+00  0.00000000E+00
  0.00000000E+00  0.00000000E+00  0.00000000E+00
  0.00000000E+00  0.00000000E+00  0.00000000E+00
  0.00000000E+00  0.00000000E+00  0.00000000E+00
  0.00000000E+00  0.00000000E+00  0.00000000E+00
  0.00000000E+00  0.00000000E+00  0.00000000E+00
  0.00000000E+00  0.00000000E+00  0.00000000E+00
  0.00000000E+00  0.00000000E+00  0.00000000E+00
  0.00000000E+00  0.00000000E+00  0.00000000E+00
  0.00000000E+00  0.00000000E+00  0.00000000E+00
  0.00000000E+00  0.00000000E+00  0.00000000E+00
  0.00000000E+00  0.00000000E+00  0.00000000E+00
  0.00000000E+00  0.00000000E+00  0.00000000E+00
  0.00000000E+00  0.00000000E+00  0.00000000E+00
  0.00000000E+00  0.00000000E+00  0.00000000E+00
  0.00000000E+00  0.00000000E+00  0.00000000E+00
  0.00000000E+00  0.00000000E+00  0.00000000E+00
  0.00000000E+00  0.00000000E+00  0.00000000E+00
  0.00000000E+00  0.00000000E+00  0.00000000E+00
  0.00000000E+00  0.00000000E+00  0.00000000E+00
  0.00000000E+00  0.00000000E+00  0.00000000E+00
  0.00000000E+00  0.00000000E+00  0.00000000E+00
  0.00000000E+00  0.00000000E+00  0.00000000E+00
  0.00000000E+00  0.00000000E+00  0.00000000E+00
  0.00000000E+00  0.00000000E+00  0.00000000E+00
  0.00000000E+00  0.00000000E+00  0.00000000E+00
  0.00000000E+00  0.00000000E+00  0.00000000E+00
  0.00000000E+00  0.00000000E+00  0.00000000E+00
  0.00000000E+00  0.00000000E+00  0.00000000E+00
  0.00000000E+00  0.00000000E+00  0.00000000E+00
  0.00000000E+00  0.00000000E+00  0.00000000E+00
  0.00000000E+00  0.00000000E+00  0.00000000E+00
  0.00000000E+00  0.00000000E+00  0.00000000E+00
  0.00000000E+00  0.00000000E+00  0.00000000E+00
  0.00000000E+00  0.00000000E+00  0.00000000E+00
  0.00000000E+00  0.00000000E+00  0.00000000E+00
  0.00000000E+00  0.00000000E+00  0.00000000E+00
  0.00000000E+00  0.00000000E+00  0.00000000E+00
  0.00000000E+00  0.00000000E+00  0.00000000E+00
  0.00000000E+00  0.00000000E+00  0.00000000E+00
  0.00000000E+00  0.00000000E+00  0.00000000E+00
  0.00000000E+00  0.00000000E+00  0.00000000E+00
  0.00000000E+00  0.00000000E+00  0.00000000E+00
  0.00000000E+00  0.00000000E+00  0.00000000E+00
  0.00000000E+00  0.00000000E+00  0.00000000E+00
  0.00000000E+00  0.00000000E+00  0.00000000E+00
  0.00000000E+00  0.00000000E+00  0.00000000E+00
  0.00000000E+00  0.00000000E+00  0.00000000E+00
  0.00000000E+00  0.00000000E+00  0.00000000E+00
  0.00000000E+00  0.00000000E+00  0.00000000E+00
  0.00000000E+00  0.00000000E+00  0.00000000E+00
  0.00000000E+00  0.00000000E+00  0.00000000E+00
  0.00000000E+00  0.00000000E+00  0.00000000E+00
  0.00000000E+00  0.00000000E+00  0.00000000E+00
  0.00000000E+00  0.00000000E+00  0.00000000E+00
  0.00000000E+00  0.00000000E+00  0.00000000E+00
  0.00000000E+00  0.00000000E+00  0.00000000E+00
