Primitive Cell                          
   1.00000000000000     
    35.3836670948920400   -0.0133837671231847    0.0000000000000000
   -17.7034924492395831   30.5761672182061659    0.0000000000000000
     0.0000000000000000    0.0000000000000000   20.0000000000000000
   N    O    H    C 
    36    18    72   144
Direct
  0.2960974467355939  0.1893161265640728  0.5787571097671034
  0.2964187927279838  0.1226843853623905  0.5808996026983593
  0.2296849225711526  0.1222011674228369  0.5960297563269634
  0.8176142432506452  0.1190012200990651  0.5816161488714897
  0.8841285038489559  0.1861533517575964  0.5812334710073301
  0.8847834268016612  0.1200071954966262  0.5982214395049681
  0.1137189409054074  0.3026794387100153  0.5789048782499719
  0.1808013708148266  0.3034503273857325  0.5807866764146254
  0.1145603943690787  0.2363611780322827  0.5958482431256513
  0.5100707612696525  0.2956501018985520  0.4545586914510835
  0.5120938799739037  0.2296264922895475  0.4610822731134832
  0.5500406406157694  0.2808301819406012  0.3749889002413340
  0.7804161632251763  0.4953975114480897  0.4520449453326449
  0.7122400413019250  0.4930491733697764  0.4568534363202161
  0.7261463561713981  0.4550024580623102  0.3718330043612426
  0.7098597305398968  0.2249994032610587  0.4571543551159820
  0.7760131361673430  0.2932060387027136  0.4599472404307434
  0.7233968719780250  0.2785231557669121  0.3757477106597307
  0.8862199549916383  0.7090492464738887  0.5788261101986976
  0.8190026830165351  0.7080784612690678  0.5807042513791600
  0.8851309802220584  0.7751165595959648  0.5969193076457557
  0.7038595543455273  0.8226328903776050  0.5794361205785279
  0.7033895827774330  0.8891825497191093  0.5823307128821682
  0.7701411115727410  0.8896675863109635  0.5977483380060207
  0.1823138471336208  0.8929939413487489  0.5804693770631388
  0.1157944534068847  0.8258496395627262  0.5789990679444799
  0.1150726646341127  0.8919680796631582  0.5959944802389003
  0.4900128270357840  0.7159920730765279  0.4554762038216680
  0.4879340280035436  0.7820114801324891  0.4616096795694489
  0.4500848320782040  0.7307041834369272  0.3756298020258413
  0.2207736150817539  0.5173327148501201  0.4563768059420781
  0.2884827000984700  0.5187608382122590  0.4592566847439699
  0.2741223565999817  0.5565296591988016  0.3743925385660702
  0.2909749751235466  0.7874826068549581  0.4576201229528394
  0.2251817680999721  0.7190828451063780  0.4620178787858649
  0.2769349467377040  0.7336399282447061  0.3764776454073200
  0.3668161818305649  0.1221292754804395  0.5538317959305417
  0.8843043784683644  0.2570284095690312  0.5536256743457884
  0.2517645878915928  0.3742126200483042  0.5536907666290176
  0.2950373753722388  0.2608764721399623  0.5742168282463496
  0.7460561861497794  0.0462883120423214  0.5793252139248324
  0.0409022377874493  0.3011981324274799  0.5766398129951398
  0.5920274489247959  0.2621856586620837  0.2884022167765679
  0.6658563664686170  0.4117434840436189  0.2852296046875651
  0.7407204578993003  0.3378814939680765  0.2870299635136959
  0.7482369960394806  0.6370481895066078  0.5530122467486649
  0.6326152227846009  0.8894739538571059  0.5565637556339738
  0.1161877466116010  0.7549252920011611  0.5532597932656458
  0.9591122319035819  0.7108586422173246  0.5737526921433229
  0.7047720675108735  0.7509747477925828  0.5752675098515851
  0.2539218969377259  0.9656322428812558  0.5804894117972381
  0.4079895107749962  0.7491226491791920  0.2888682571323500
  0.3340100746263772  0.5995542980742101  0.2869532884511088
  0.2594917782303696  0.6735698417211253  0.2889190512251005
  0.4449876243100093  0.1687918662747450  0.5100091090118823
  0.3354667824049997  0.1121780757170612  0.5674589446539784
  0.8372199444206032  0.2879040842494902  0.5095557782964732
  0.8944251830456480  0.2357561571702860  0.5672070928776805
  0.2828770938505514  0.4523284151436471  0.5093643670357224
  0.2304321736255872  0.3428109962322523  0.5674784287950629
  0.1670656274557558  0.1332418418853507  0.6114875532787352
  0.1254458317939182  0.1732666529196010  0.6122191633670013
  0.8737272327236809  0.0458317263650088  0.6125104391342475
  0.0408120706690980  0.1730866348443172  0.6098800764701622
  0.9591509474879629  0.1310958412623293  0.6112098508464570
  0.1659771170387216  0.0478909212253669  0.6093664282460907
  0.5587812875901434  0.1946154737475609  0.4927390286428945
  0.6277618448133140  0.1915895597139254  0.4920827526168736
  0.6304493222002421  0.4472214170794047  0.4867389468159189
  0.5582839028081210  0.3780889323322825  0.4865349842564513
  0.8114127531611217  0.3755413339697284  0.4887503382684883
  0.8144750274419792  0.4476538156976204  0.4862197243828561
  0.3704648117244176  0.2537721587585509  0.5549642981060643
  0.4464181074397402  0.2916288669426521  0.5128556523948973
  0.7530201020560554  0.1284641936986262  0.5579075752677980
  0.7147630010757311  0.1660314968234786  0.5155447535819988
  0.1235588973809882  0.3771122417332862  0.5566665347083060
  0.1614071752386224  0.4532227081691573  0.5146058778444882
  0.2463082190747912  0.2941231856293314  0.5766244727409386
  0.3057294132523936  0.2388737670466057  0.5738729763618693
  0.7680965255046246  0.0790473816130657  0.5782884493563358
  0.9589066642713107  0.2521021428781864  0.5795463403613823
  0.0736053029761123  0.3120573261822059  0.5754562153175726
  0.2872190889587714  0.0477421305680679  0.5824110999337648
  0.6593213417534969  0.2553623376981449  0.2989538881203515
  0.5738000833353354  0.2743735380049870  0.3073269283993838
  0.5916516997565608  0.3441047330663025  0.2964014211035533
  0.6961976012017388  0.4304372080639638  0.3043657135985001
  0.7475781557292223  0.4122479092543543  0.2956986304711791
  0.7288154697800096  0.3077207414969436  0.3069968528673996
  0.7175707299505376  0.5593101092607213  0.5073449728461270
  0.7693582945841086  0.6684226044678354  0.5670827233809348
  0.5545851564960813  0.8427618288865020  0.5120249059393274
  0.6640178759597859  0.8995069546447638  0.5699102635836297
  0.1637656680389199  0.7242672891988775  0.5104479855144959
  0.1058146384797070  0.7760991246947455  0.5660759388544108
  0.9590462157507318  0.8384707138338996  0.6117631617241415
  0.0406992649594144  0.8806311404131222  0.6116341414975253
  0.8336721585513658  0.9640588259133196  0.6128021103743109
  0.8329750910368148  0.8784668936897191  0.6121061010633611
  0.8743673915885282  0.8382701584610572  0.6127864636765068
  0.1258963569110065  0.9661128569205886  0.6089361773787942
  0.4418081378481986  0.8176456659373343  0.4924393842423740
  0.3730546927021905  0.8211073353571550  0.4915209060804244
  0.3702733362443738  0.5644937457247039  0.4881061062815704
  0.4423333511136534  0.6337460054057118  0.4873962010357644
  0.1897444640825867  0.6371985821385948  0.4914042692107046
  0.1866629804601132  0.5650543355549118  0.4898064369915716
  0.8770058901193707  0.6352641593595365  0.5538276314414432
  0.8396300866327309  0.5595441509739203  0.5103424525270981
  0.6295976347999357  0.7581303950523477  0.5558653372620768
  0.5536665871988049  0.7201675011199740  0.5137396422276481
  0.2469965058724668  0.8839528894482527  0.5569245128142768
  0.2857942639318409  0.8466032956134129  0.5159829122146036
  0.0410323048836432  0.7600796042640638  0.5754874003245263
  0.9263701433864142  0.6998844988460675  0.5735724739724049
  0.7127995732553316  0.9642131140510415  0.5810625486780907
  0.7533000979236064  0.7175098914250597  0.5778449501027794
  0.6941702591793799  0.7730489485609411  0.5746406815854925
  0.2318579675715995  0.9328862738451065  0.5789233796003899
  0.3408320209297528  0.7562603748816130  0.2992451717276836
  0.4262395571106055  0.7369926691940023  0.3079336600246876
  0.4082153016500598  0.6672753320919824  0.2974979099766202
  0.3037579426085770  0.5808465294998229  0.3063503128458720
  0.2527313061320058  0.5992730694035586  0.2985739460118353
  0.2712649452031499  0.7038712633838671  0.3083070724193604
  0.2525502232116565  0.1661913672764186  0.5900126903577103
  0.3172661395590524  0.1665962778725358  0.5732824444286280
  0.2528041148204139  0.1018008195154465  0.5913503464652408
  0.8408075715012018  0.0986695819746330  0.5927451226384548
  0.8402037404882421  0.1629129389948147  0.5749114300251392
  0.9050773309979547  0.1635620662580877  0.5921732309714258
  0.0933397436717627  0.2590513414195499  0.5900964811213569
  0.1576428507877523  0.3241197191311329  0.5735235209930920
  0.1581002848352853  0.2597310609570940  0.5908414796221209
  0.5401787542731640  0.3087044110309094  0.4062148198906357
  0.4928237813100083  0.2534687659072432  0.4734974745958809
  0.5414814388955875  0.2449361198341862  0.4112131123074363
  0.7636293310083531  0.4650164140060440  0.4039648518689631
  0.6985375596636914  0.4635716218134434  0.4070899872454632
  0.6960584797831899  0.2412593700019272  0.4086870940853657
  0.7523023764652237  0.2502640700406005  0.4743065043526258
  0.7598799828058986  0.3064946134349142  0.4102053192470194
  0.2456456320247966  0.4997879696842062  0.4736305768455580
  0.3635561713621485  0.1893407046776048  0.5558474537066402
  0.3858280429774013  0.1655125325092754  0.5445187875985411
  0.4289554889979712  0.1875788107887004  0.5207464182579500
  0.8172948432184057  0.1862602574856709  0.5573629135060543
  0.8409140417929066  0.2323674554838604  0.5450615585966077
  0.8186112141298238  0.2531117722678502  0.5210829135902273
  0.1811526904455434  0.3705298394162924  0.5564462395264158
  0.2272462591996387  0.3930181253516878  0.5446722516802254
  0.2481121062909679  0.4361519072524942  0.5206878303333866
  0.1829089926871674  0.2363092125609825  0.5943046903537308
  0.1606394415269747  0.1905743959251325  0.6047387055162474
  0.1837295092823084  0.1685449862118347  0.6042870292464073
  0.8384013000462502  0.0272122520982521  0.6061054952681815
  0.9533843301168119  0.1885702076296738  0.5952995083767121
  0.9769774916426570  0.1664093245693437  0.6044816626580385
  0.0221401983239602  0.1897263742262254  0.6036975633190664
  0.2292398816735997  0.0534620674535802  0.5955246185228660
  0.1833725231734888  0.0299614242571096  0.6038116493472927
  0.6489409898732674  0.2244860632519732  0.3963672574871069
  0.6188544199003658  0.2045040153182356  0.4492129907051563
  0.5805281844294328  0.2064330169117241  0.4495660718474355
  0.5706102223680674  0.3557063079120653  0.3924577207090536
  0.5804126425294100  0.3865186694997078  0.4441437570111759
  0.6207229644407377  0.4249368889328480  0.4442219643740302
  0.7800828568190354  0.4343973587196359  0.3917174793480456
  0.8008838398057776  0.4251065741337214  0.4442381116635303
  0.7989439456233001  0.3847939923357657  0.4456329493602880
  0.4502293752590916  0.2323877386721733  0.5081073510492757
  0.4292264134512962  0.2565668937975047  0.5222195411610073
  0.3867678191979707  0.2351087684317577  0.5455033786820351
  0.7737819714055263  0.2292676881279760  0.5091938686397555
  0.7498357996172871  0.1841285136178499  0.5243401142035822
  0.7715208860534091  0.1634312579859269  0.5477966818027937
  0.2244399535887283  0.4572555299784753  0.5085690578371427
  0.1793426488872427  0.4361160098607186  0.5234685527428340
  0.1584954640320220  0.3935990199384065  0.5467395028068651
  0.2293102758819998  0.1906216851697806  0.5936479190816755
  0.2517792102626757  0.2369422075130032  0.5844314571001448
  0.2280471380302700  0.2589812386083281  0.5849356998618802
  0.8163848425363511  0.0508620028706801  0.5966207146980906
  0.7700326433257345  0.0269380817601714  0.5884039492167119
  0.0456131475895489  0.2354780139815205  0.5939637433729956
  0.0216369743840374  0.2578094745330262  0.5859580112974356
  0.9758289476691075  0.2338552168409080  0.5868049708117766
  0.2519568864713548  0.0308770871929127  0.5887407509151714
  0.5712272317205205  0.2279881650005109  0.3983624374613512
  0.5988601993180467  0.2423679634337148  0.3408158027322088
  0.6369679704645250  0.2398150595544024  0.3405400700078829
  0.6518841698784925  0.4336721155946464  0.3937539866637962
  0.6388986474949263  0.4053396163037135  0.3369941684793005
  0.5982295337737114  0.3670342580926658  0.3370859257916408
  0.7765983696775294  0.3530689370051618  0.3957504628663813
  0.7613058325396409  0.3654234055675758  0.3382909239312681
  0.7638164315022067  0.4061334073193592  0.3369861500145106
  0.9065009809750393  0.7526109936538674  0.5904966009398365
  0.8423158677286082  0.6875702702873596  0.5730469253032169
  0.8416100092414922  0.7517411067480850  0.5915763512243899
  0.7473580157221207  0.8456986200403449  0.5911446396139866
  0.6826008747465835  0.8452871209335342  0.5745004620633338
  0.7470152499912075  0.9100732065043289  0.5928087065803140
  0.1590573793360122  0.9133153253582975  0.5910588875530038
  0.1597666418436816  0.8491186220815266  0.5734038674452648
  0.0948115298916150  0.8484169214455051  0.5899485844465318
  0.7552620337807525  0.5124776549140364  0.4701741357096765
  0.4599733148684351  0.7028990130372108  0.4070148397354600
  0.5071603963929974  0.7581793031293458  0.4743914486772312
  0.4586351252847081  0.7666707854344281  0.4116290800374074
  0.2371201230733249  0.5471482593268391  0.4074672192384909
  0.3019208795753059  0.5480440197953840  0.4092599334181486
  0.3044927337653291  0.7710328308597454  0.4090121482010147
  0.2486722009980227  0.7621553251786821  0.4755080699781473
  0.2409001563757442  0.7056903971311073  0.4118576049367135
  0.8190894397998676  0.6413098880763854  0.5549192275920021
  0.7730038207932637  0.6186017026098440  0.5431704284395167
  0.7523779654932596  0.5756506532444021  0.5184182150860579
  0.6362607977415209  0.8224571553891238  0.5573300770538765
  0.6137998413553518  0.8461560090645150  0.5465515243764116
  0.5707159883216448  0.8240434144955628  0.5225646142160940
  0.1829159367878574  0.8259075383852661  0.5565190776887690
  0.1595740947359516  0.7797513761444748  0.5448055209593861
  0.1821626223460839  0.7591186478317340  0.5216191634637894
  0.0465184264841909  0.8233834592286371  0.5934469972902221
  0.0229026353496735  0.8453726671640496  0.6042410508796650
  0.9777319565135656  0.8219561643447477  0.6042879015309381
  0.7705621227998378  0.9584438269841371  0.5967886883588918
  0.8163290627062310  0.9819722234182677  0.6063098342161481
  0.8168131794566378  0.7752175315816814  0.5952798632877077
  0.8391556996431859  0.8209881251606959  0.6055261427070278
  0.8161681194861927  0.8431385336822856  0.6050888235727072
  0.1612943581250619  0.9847267876775163  0.6035372698521826
  0.3515431746002662  0.7876675929233770  0.3962808716023929
  0.3817833590130277  0.8078552328282385  0.4488844838650721
  0.4199808519919870  0.8056948126283743  0.4493710254604224
  0.4296282911261429  0.6558762666323759  0.3933876593991528
  0.4200807139917728  0.6251691778177246  0.4451388182969396
  0.3798325319546620  0.5866992925348882  0.4455081449454497
  0.2207017123741224  0.5777667192448206  0.3950455010227785
  0.2001092475397712  0.5873619863232733  0.4475276940908941
  0.2020461733437031  0.6276668218808936  0.4483953241464107
  0.7763185903583363  0.5549409005922854  0.5053551036434740
  0.8214635720098826  0.5763281650853145  0.5199649978825533
  0.8420450559195842  0.6186399318697156  0.5440901253589061
  0.5496265626991530  0.7792917238150849  0.5094084092800841
  0.5707404374227920  0.7552006179244088  0.5233508631351285
  0.6131879781132454  0.7767203833685912  0.5466703117522016
  0.2270187659189844  0.7831319247402888  0.5099358139639065
  0.2507010236780971  0.8283522949854927  0.5245627539656965
  0.2287181732144177  0.8489284584759815  0.5472464558070911
  0.9542599475669817  0.7762779796972126  0.5937864871939809
  0.9782936036854792  0.7541416170519497  0.5840494528023754
  0.0240954288538973  0.7781829777095552  0.5840924507809930
  0.7479575214122534  0.9810542072593904  0.5886538733316868
  0.7705676778252482  0.8211878562318375  0.5946288873148973
  0.7480361283914689  0.7748406716957064  0.5854791863624342
  0.7716597635947267  0.7526670105745694  0.5860512652804317
  0.1834276887481892  0.9611003033440895  0.5951640489716397
  0.2298713420631486  0.9850029404094442  0.5883465717248910
  0.4290305960257967  0.7837476709231765  0.3984871570623483
  0.4013127863044517  0.7692257631503026  0.3410383192958406
  0.3632940326528455  0.7719553987215804  0.3406630184660031
  0.3484877926034002  0.5778426714588818  0.3953016954408994
  0.3611965752254704  0.6060707029593431  0.3384455376797177
  0.4018306043256246  0.6444155555907187  0.3382090964520543
  0.2241727581023341  0.6590684030278382  0.3980101433318524
  0.2391833908368142  0.6463639731624511  0.3406269363036287
  0.2366939812487985  0.6056592383380774  0.3398673277011497
 
  0.00000000E+00  0.00000000E+00  0.00000000E+00
  0.00000000E+00  0.00000000E+00  0.00000000E+00
  0.00000000E+00  0.00000000E+00  0.00000000E+00
  0.00000000E+00  0.00000000E+00  0.00000000E+00
  0.00000000E+00  0.00000000E+00  0.00000000E+00
  0.00000000E+00  0.00000000E+00  0.00000000E+00
  0.00000000E+00  0.00000000E+00  0.00000000E+00
  0.00000000E+00  0.00000000E+00  0.00000000E+00
  0.00000000E+00  0.00000000E+00  0.00000000E+00
  0.00000000E+00  0.00000000E+00  0.00000000E+00
  0.00000000E+00  0.00000000E+00  0.00000000E+00
  0.00000000E+00  0.00000000E+00  0.00000000E+00
  0.00000000E+00  0.00000000E+00  0.00000000E+00
  0.00000000E+00  0.00000000E+00  0.00000000E+00
  0.00000000E+00  0.00000000E+00  0.00000000E+00
  0.00000000E+00  0.00000000E+00  0.00000000E+00
  0.00000000E+00  0.00000000E+00  0.00000000E+00
  0.00000000E+00  0.00000000E+00  0.00000000E+00
  0.00000000E+00  0.00000000E+00  0.00000000E+00
  0.00000000E+00  0.00000000E+00  0.00000000E+00
  0.00000000E+00  0.00000000E+00  0.00000000E+00
  0.00000000E+00  0.00000000E+00  0.00000000E+00
  0.00000000E+00  0.00000000E+00  0.00000000E+00
  0.00000000E+00  0.00000000E+00  0.00000000E+00
  0.00000000E+00  0.00000000E+00  0.00000000E+00
  0.00000000E+00  0.00000000E+00  0.00000000E+00
  0.00000000E+00  0.00000000E+00  0.00000000E+00
  0.00000000E+00  0.00000000E+00  0.00000000E+00
  0.00000000E+00  0.00000000E+00  0.00000000E+00
  0.00000000E+00  0.00000000E+00  0.00000000E+00
  0.00000000E+00  0.00000000E+00  0.00000000E+00
  0.00000000E+00  0.00000000E+00  0.00000000E+00
  0.00000000E+00  0.00000000E+00  0.00000000E+00
  0.00000000E+00  0.00000000E+00  0.00000000E+00
  0.00000000E+00  0.00000000E+00  0.00000000E+00
  0.00000000E+00  0.00000000E+00  0.00000000E+00
  0.00000000E+00  0.00000000E+00  0.00000000E+00
  0.00000000E+00  0.00000000E+00  0.00000000E+00
  0.00000000E+00  0.00000000E+00  0.00000000E+00
  0.00000000E+00  0.00000000E+00  0.00000000E+00
  0.00000000E+00  0.00000000E+00  0.00000000E+00
  0.00000000E+00  0.00000000E+00  0.00000000E+00
  0.00000000E+00  0.00000000E+00  0.00000000E+00
  0.00000000E+00  0.00000000E+00  0.00000000E+00
  0.00000000E+00  0.00000000E+00  0.00000000E+00
  0.00000000E+00  0.00000000E+00  0.00000000E+00
  0.00000000E+00  0.00000000E+00  0.00000000E+00
  0.00000000E+00  0.00000000E+00  0.00000000E+00
  0.00000000E+00  0.00000000E+00  0.00000000E+00
  0.00000000E+00  0.00000000E+00  0.00000000E+00
  0.00000000E+00  0.00000000E+00  0.00000000E+00
  0.00000000E+00  0.00000000E+00  0.00000000E+00
  0.00000000E+00  0.00000000E+00  0.00000000E+00
  0.00000000E+00  0.00000000E+00  0.00000000E+00
  0.00000000E+00  0.00000000E+00  0.00000000E+00
  0.00000000E+00  0.00000000E+00  0.00000000E+00
  0.00000000E+00  0.00000000E+00  0.00000000E+00
  0.00000000E+00  0.00000000E+00  0.00000000E+00
  0.00000000E+00  0.00000000E+00  0.00000000E+00
  0.00000000E+00  0.00000000E+00  0.00000000E+00
  0.00000000E+00  0.00000000E+00  0.00000000E+00
  0.00000000E+00  0.00000000E+00  0.00000000E+00
  0.00000000E+00  0.00000000E+00  0.00000000E+00
  0.00000000E+00  0.00000000E+00  0.00000000E+00
  0.00000000E+00  0.00000000E+00  0.00000000E+00
  0.00000000E+00  0.00000000E+00  0.00000000E+00
  0.00000000E+00  0.00000000E+00  0.00000000E+00
  0.00000000E+00  0.00000000E+00  0.00000000E+00
  0.00000000E+00  0.00000000E+00  0.00000000E+00
  0.00000000E+00  0.00000000E+00  0.00000000E+00
  0.00000000E+00  0.00000000E+00  0.00000000E+00
  0.00000000E+00  0.00000000E+00  0.00000000E+00
  0.00000000E+00  0.00000000E+00  0.00000000E+00
  0.00000000E+00  0.00000000E+00  0.00000000E+00
  0.00000000E+00  0.00000000E+00  0.00000000E+00
  0.00000000E+00  0.00000000E+00  0.00000000E+00
  0.00000000E+00  0.00000000E+00  0.00000000E+00
  0.00000000E+00  0.00000000E+00  0.00000000E+00
  0.00000000E+00  0.00000000E+00  0.00000000E+00
  0.00000000E+00  0.00000000E+00  0.00000000E+00
  0.00000000E+00  0.00000000E+00  0.00000000E+00
  0.00000000E+00  0.00000000E+00  0.00000000E+00
  0.00000000E+00  0.00000000E+00  0.00000000E+00
  0.00000000E+00  0.00000000E+00  0.00000000E+00
  0.00000000E+00  0.00000000E+00  0.00000000E+00
  0.00000000E+00  0.00000000E+00  0.00000000E+00
  0.00000000E+00  0.00000000E+00  0.00000000E+00
  0.00000000E+00  0.00000000E+00  0.00000000E+00
  0.00000000E+00  0.00000000E+00  0.00000000E+00
  0.00000000E+00  0.00000000E+00  0.00000000E+00
  0.00000000E+00  0.00000000E+00  0.00000000E+00
  0.00000000E+00  0.00000000E+00  0.00000000E+00
  0.00000000E+00  0.00000000E+00  0.00000000E+00
  0.00000000E+00  0.00000000E+00  0.00000000E+00
  0.00000000E+00  0.00000000E+00  0.00000000E+00
  0.00000000E+00  0.00000000E+00  0.00000000E+00
  0.00000000E+00  0.00000000E+00  0.00000000E+00
  0.00000000E+00  0.00000000E+00  0.00000000E+00
  0.00000000E+00  0.00000000E+00  0.00000000E+00
  0.00000000E+00  0.00000000E+00  0.00000000E+00
  0.00000000E+00  0.00000000E+00  0.00000000E+00
  0.00000000E+00  0.00000000E+00  0.00000000E+00
  0.00000000E+00  0.00000000E+00  0.00000000E+00
  0.00000000E+00  0.00000000E+00  0.00000000E+00
  0.00000000E+00  0.00000000E+00  0.00000000E+00
  0.00000000E+00  0.00000000E+00  0.00000000E+00
  0.00000000E+00  0.00000000E+00  0.00000000E+00
  0.00000000E+00  0.00000000E+00  0.00000000E+00
  0.00000000E+00  0.00000000E+00  0.00000000E+00
  0.00000000E+00  0.00000000E+00  0.00000000E+00
  0.00000000E+00  0.00000000E+00  0.00000000E+00
  0.00000000E+00  0.00000000E+00  0.00000000E+00
  0.00000000E+00  0.00000000E+00  0.00000000E+00
  0.00000000E+00  0.00000000E+00  0.00000000E+00
  0.00000000E+00  0.00000000E+00  0.00000000E+00
  0.00000000E+00  0.00000000E+00  0.00000000E+00
  0.00000000E+00  0.00000000E+00  0.00000000E+00
  0.00000000E+00  0.00000000E+00  0.00000000E+00
  0.00000000E+00  0.00000000E+00  0.00000000E+00
  0.00000000E+00  0.00000000E+00  0.00000000E+00
  0.00000000E+00  0.00000000E+00  0.00000000E+00
  0.00000000E+00  0.00000000E+00  0.00000000E+00
  0.00000000E+00  0.00000000E+00  0.00000000E+00
  0.00000000E+00  0.00000000E+00  0.00000000E+00
  0.00000000E+00  0.00000000E+00  0.00000000E+00
  0.00000000E+00  0.00000000E+00  0.00000000E+00
  0.00000000E+00  0.00000000E+00  0.00000000E+00
  0.00000000E+00  0.00000000E+00  0.00000000E+00
  0.00000000E+00  0.00000000E+00  0.00000000E+00
  0.00000000E+00  0.00000000E+00  0.00000000E+00
  0.00000000E+00  0.00000000E+00  0.00000000E+00
  0.00000000E+00  0.00000000E+00  0.00000000E+00
  0.00000000E+00  0.00000000E+00  0.00000000E+00
  0.00000000E+00  0.00000000E+00  0.00000000E+00
  0.00000000E+00  0.00000000E+00  0.00000000E+00
  0.00000000E+00  0.00000000E+00  0.00000000E+00
  0.00000000E+00  0.00000000E+00  0.00000000E+00
  0.00000000E+00  0.00000000E+00  0.00000000E+00
  0.00000000E+00  0.00000000E+00  0.00000000E+00
  0.00000000E+00  0.00000000E+00  0.00000000E+00
  0.00000000E+00  0.00000000E+00  0.00000000E+00
  0.00000000E+00  0.00000000E+00  0.00000000E+00
  0.00000000E+00  0.00000000E+00  0.00000000E+00
  0.00000000E+00  0.00000000E+00  0.00000000E+00
  0.00000000E+00  0.00000000E+00  0.00000000E+00
  0.00000000E+00  0.00000000E+00  0.00000000E+00
  0.00000000E+00  0.00000000E+00  0.00000000E+00
  0.00000000E+00  0.00000000E+00  0.00000000E+00
  0.00000000E+00  0.00000000E+00  0.00000000E+00
  0.00000000E+00  0.00000000E+00  0.00000000E+00
  0.00000000E+00  0.00000000E+00  0.00000000E+00
  0.00000000E+00  0.00000000E+00  0.00000000E+00
  0.00000000E+00  0.00000000E+00  0.00000000E+00
  0.00000000E+00  0.00000000E+00  0.00000000E+00
  0.00000000E+00  0.00000000E+00  0.00000000E+00
  0.00000000E+00  0.00000000E+00  0.00000000E+00
  0.00000000E+00  0.00000000E+00  0.00000000E+00
  0.00000000E+00  0.00000000E+00  0.00000000E+00
  0.00000000E+00  0.00000000E+00  0.00000000E+00
  0.00000000E+00  0.00000000E+00  0.00000000E+00
  0.00000000E+00  0.00000000E+00  0.00000000E+00
  0.00000000E+00  0.00000000E+00  0.00000000E+00
  0.00000000E+00  0.00000000E+00  0.00000000E+00
  0.00000000E+00  0.00000000E+00  0.00000000E+00
  0.00000000E+00  0.00000000E+00  0.00000000E+00
  0.00000000E+00  0.00000000E+00  0.00000000E+00
  0.00000000E+00  0.00000000E+00  0.00000000E+00
  0.00000000E+00  0.00000000E+00  0.00000000E+00
  0.00000000E+00  0.00000000E+00  0.00000000E+00
  0.00000000E+00  0.00000000E+00  0.00000000E+00
  0.00000000E+00  0.00000000E+00  0.00000000E+00
  0.00000000E+00  0.00000000E+00  0.00000000E+00
  0.00000000E+00  0.00000000E+00  0.00000000E+00
  0.00000000E+00  0.00000000E+00  0.00000000E+00
  0.00000000E+00  0.00000000E+00  0.00000000E+00
  0.00000000E+00  0.00000000E+00  0.00000000E+00
  0.00000000E+00  0.00000000E+00  0.00000000E+00
  0.00000000E+00  0.00000000E+00  0.00000000E+00
  0.00000000E+00  0.00000000E+00  0.00000000E+00
  0.00000000E+00  0.00000000E+00  0.00000000E+00
  0.00000000E+00  0.00000000E+00  0.00000000E+00
  0.00000000E+00  0.00000000E+00  0.00000000E+00
  0.00000000E+00  0.00000000E+00  0.00000000E+00
  0.00000000E+00  0.00000000E+00  0.00000000E+00
  0.00000000E+00  0.00000000E+00  0.00000000E+00
  0.00000000E+00  0.00000000E+00  0.00000000E+00
  0.00000000E+00  0.00000000E+00  0.00000000E+00
  0.00000000E+00  0.00000000E+00  0.00000000E+00
  0.00000000E+00  0.00000000E+00  0.00000000E+00
  0.00000000E+00  0.00000000E+00  0.00000000E+00
  0.00000000E+00  0.00000000E+00  0.00000000E+00
  0.00000000E+00  0.00000000E+00  0.00000000E+00
  0.00000000E+00  0.00000000E+00  0.00000000E+00
  0.00000000E+00  0.00000000E+00  0.00000000E+00
  0.00000000E+00  0.00000000E+00  0.00000000E+00
  0.00000000E+00  0.00000000E+00  0.00000000E+00
  0.00000000E+00  0.00000000E+00  0.00000000E+00
  0.00000000E+00  0.00000000E+00  0.00000000E+00
  0.00000000E+00  0.00000000E+00  0.00000000E+00
  0.00000000E+00  0.00000000E+00  0.00000000E+00
  0.00000000E+00  0.00000000E+00  0.00000000E+00
  0.00000000E+00  0.00000000E+00  0.00000000E+00
  0.00000000E+00  0.00000000E+00  0.00000000E+00
  0.00000000E+00  0.00000000E+00  0.00000000E+00
  0.00000000E+00  0.00000000E+00  0.00000000E+00
  0.00000000E+00  0.00000000E+00  0.00000000E+00
  0.00000000E+00  0.00000000E+00  0.00000000E+00
  0.00000000E+00  0.00000000E+00  0.00000000E+00
  0.00000000E+00  0.00000000E+00  0.00000000E+00
  0.00000000E+00  0.00000000E+00  0.00000000E+00
  0.00000000E+00  0.00000000E+00  0.00000000E+00
  0.00000000E+00  0.00000000E+00  0.00000000E+00
  0.00000000E+00  0.00000000E+00  0.00000000E+00
  0.00000000E+00  0.00000000E+00  0.00000000E+00
  0.00000000E+00  0.00000000E+00  0.00000000E+00
  0.00000000E+00  0.00000000E+00  0.00000000E+00
  0.00000000E+00  0.00000000E+00  0.00000000E+00
  0.00000000E+00  0.00000000E+00  0.00000000E+00
  0.00000000E+00  0.00000000E+00  0.00000000E+00
  0.00000000E+00  0.00000000E+00  0.00000000E+00
  0.00000000E+00  0.00000000E+00  0.00000000E+00
  0.00000000E+00  0.00000000E+00  0.00000000E+00
  0.00000000E+00  0.00000000E+00  0.00000000E+00
  0.00000000E+00  0.00000000E+00  0.00000000E+00
  0.00000000E+00  0.00000000E+00  0.00000000E+00
  0.00000000E+00  0.00000000E+00  0.00000000E+00
  0.00000000E+00  0.00000000E+00  0.00000000E+00
  0.00000000E+00  0.00000000E+00  0.00000000E+00
  0.00000000E+00  0.00000000E+00  0.00000000E+00
  0.00000000E+00  0.00000000E+00  0.00000000E+00
  0.00000000E+00  0.00000000E+00  0.00000000E+00
  0.00000000E+00  0.00000000E+00  0.00000000E+00
  0.00000000E+00  0.00000000E+00  0.00000000E+00
  0.00000000E+00  0.00000000E+00  0.00000000E+00
  0.00000000E+00  0.00000000E+00  0.00000000E+00
  0.00000000E+00  0.00000000E+00  0.00000000E+00
  0.00000000E+00  0.00000000E+00  0.00000000E+00
  0.00000000E+00  0.00000000E+00  0.00000000E+00
  0.00000000E+00  0.00000000E+00  0.00000000E+00
  0.00000000E+00  0.00000000E+00  0.00000000E+00
  0.00000000E+00  0.00000000E+00  0.00000000E+00
  0.00000000E+00  0.00000000E+00  0.00000000E+00
  0.00000000E+00  0.00000000E+00  0.00000000E+00
  0.00000000E+00  0.00000000E+00  0.00000000E+00
  0.00000000E+00  0.00000000E+00  0.00000000E+00
  0.00000000E+00  0.00000000E+00  0.00000000E+00
  0.00000000E+00  0.00000000E+00  0.00000000E+00
  0.00000000E+00  0.00000000E+00  0.00000000E+00
  0.00000000E+00  0.00000000E+00  0.00000000E+00
  0.00000000E+00  0.00000000E+00  0.00000000E+00
  0.00000000E+00  0.00000000E+00  0.00000000E+00
  0.00000000E+00  0.00000000E+00  0.00000000E+00
  0.00000000E+00  0.00000000E+00  0.00000000E+00
  0.00000000E+00  0.00000000E+00  0.00000000E+00
  0.00000000E+00  0.00000000E+00  0.00000000E+00
  0.00000000E+00  0.00000000E+00  0.00000000E+00
  0.00000000E+00  0.00000000E+00  0.00000000E+00
  0.00000000E+00  0.00000000E+00  0.00000000E+00
  0.00000000E+00  0.00000000E+00  0.00000000E+00
  0.00000000E+00  0.00000000E+00  0.00000000E+00
  0.00000000E+00  0.00000000E+00  0.00000000E+00
  0.00000000E+00  0.00000000E+00  0.00000000E+00
  0.00000000E+00  0.00000000E+00  0.00000000E+00
  0.00000000E+00  0.00000000E+00  0.00000000E+00
  0.00000000E+00  0.00000000E+00  0.00000000E+00
  0.00000000E+00  0.00000000E+00  0.00000000E+00
  0.00000000E+00  0.00000000E+00  0.00000000E+00
  0.00000000E+00  0.00000000E+00  0.00000000E+00
  0.00000000E+00  0.00000000E+00  0.00000000E+00