Primitive Cell                          
   1.00000000000000     
    34.5065191625928307   -0.0029152929577473    0.0000000000000000
   -17.2454323924249877   29.8733085213099478    0.0000000000000000
     0.0000000000000000    0.0000000000000000   20.0000000000000000
   C    H 
    96    60
Direct
  0.9685293021862407  0.0268543331453728  0.4855848544997556
  0.9454151874137224  0.9799230864719419  0.4855139832239814
  0.9685767984045484  0.9561637993099623  0.4854194468183053
  0.0154885656574351  0.9799748747108623  0.4853972254001846
  0.0392421015783171  0.0269096772552260  0.4854808912093063
  0.0154406391420991  0.0500271247469186  0.4855682207448169
  0.7993097241171796  0.2666147473271891  0.4901118588943589
  0.7524908893291169  0.2425698539488508  0.4857913799398972
  0.7284718786187909  0.1957275904747178  0.4815691837067675
  0.7521764458519655  0.1725872892509202  0.4817119988420231
  0.7991371237491407  0.1959410530298484  0.4859250652074252
  0.8224613184693936  0.2429223315126450  0.4900976868137619
  0.7284661571812023  0.5471090091336066  0.4895520899649313
  0.7524942470897997  0.5243071521191212  0.4853751129780903
  0.7993254617920087  0.5471025683409607  0.4812921890641562
  0.8224744522484997  0.5939610979069982  0.4814016389340665
  0.7991331343789909  0.6175952996283698  0.4854427483668928
  0.7521659980413702  0.5939631259581759  0.4895021968705677
  0.4481270830003652  0.1958410164789015  0.4899949761120510
  0.4709290778278543  0.2426828936908336  0.4857611281125713
  0.4481327016867311  0.2667135561982192  0.4814547768397688
  0.4012975441338469  0.2430054449487997  0.4814620829303777
  0.3776640152713640  0.1960222848639290  0.4855920834324650
  0.4012900414472824  0.1726821531444571  0.4898237412906354
  0.8239884910195201  0.1711525749078504  0.4859260172274489
  0.8196422237891312  0.1427281651853818  0.4326613126160979
  0.8435192733582895  0.1199581104477403  0.4321673000721518
  0.8714949768702809  0.1238255046081633  0.4858500878816727
  0.9233669288044197  0.1020803682633868  0.4313325492266316
  0.9472131320596517  0.0792763912565988  0.4316948640308240
  0.8239470091134322  0.6672463343493504  0.4854364885408202
  0.8524660003317237  0.6913141492311325  0.4322601862748812
  0.8752804456581984  0.7379693524561262  0.4317909990247841
  0.8713831041309845  0.7621021239763905  0.4854299055370035
  0.8935135850543858  0.8357964782670066  0.4307753037479713
  0.9163880165197043  0.8824645241145248  0.4311843733289535
  0.3280309190758075  0.1712219640399226  0.4855180796107916
  0.3040142555745007  0.1756825074912385  0.4322779621619262
  0.2573718362989084  0.1519104187685940  0.4317845750793765
  0.2332199330831557  0.1239509972183086  0.4854603667817372
  0.1595713404596566  0.0718214110549553  0.4312475503480613
  0.1129256044941940  0.0479489405832823  0.4317168546270267
  0.8543815135903259  0.3881274732339506  0.4364996408226816
  0.8440833479517096  0.3435128658858986  0.4388093109982947
  0.8424514625776709  0.4498191759750725  0.4824956741529220
  0.8207464744110169  0.5189315897898865  0.4781181644481478
  0.8121052345353732  0.4903811624119143  0.4231836642681586
  0.8232421423222860  0.4567689356170774  0.4250055834845980
  0.6069520311734209  0.4807328638427748  0.4360201069078755
  0.6515765171665251  0.5149923641731604  0.4382422425123096
  0.5452560462709215  0.4071863558721702  0.4822215075347813
  0.4762613703395573  0.3163138846134999  0.4781347590499294
  0.5046895053939622  0.3361975861857900  0.4230832467696075
  0.5382368833046272  0.3809779511085978  0.4247523336459196
  0.5146194846954373  0.1408627334542061  0.4364050424366823
  0.4803086138728929  0.1511470075838730  0.4386702979851975
  0.5881297523886531  0.1527015886562992  0.4825578197844393
  0.6788906217881987  0.1743012688438412  0.4782684520378808
  0.6590374479755496  0.1829640428420802  0.4232984385225933
  0.6143121132241447  0.1718762022028102  0.4250719775802807
  0.8753290501824083  0.1517809446981602  0.5395578642954959
  0.8524679228668646  0.1755708931860767  0.5391368224354238
  0.8962918037012031  0.0990670710170036  0.4858076924848547
  0.9436815204547173  0.0516783009069428  0.4856634141199976
  0.9161401709266173  0.0481144043431669  0.5397176242092385
  0.8933321983795963  0.0719591646944053  0.5402259303672494
  0.8433435636693005  0.7379878409713285  0.5390646595608288
  0.8194961429130032  0.6913301024742324  0.5386013911061767
  0.8962179648361541  0.8116680471246838  0.4854232045850750
  0.9437382775217245  0.9064719121048483  0.4853875893645139
  0.9470125425590297  0.8824281988402021  0.5396040023145829
  0.9230996347785521  0.8357613004316491  0.5400481627198559
  0.2572755577778878  0.1200371068961488  0.5391753448756376
  0.3039159599659484  0.1427720461713946  0.5387385451297746
  0.1836704543862169  0.0992187089185705  0.4854382023136168
  0.0889035666407523  0.0517874689657063  0.4854652194380975
  0.1129285213553501  0.0797025406845009  0.5391830580751886
  0.1595753832134861  0.1025234221957874  0.5396179133469943
  0.8207307861981974  0.3162077595130697  0.4934301183734817
  0.8120535811940712  0.3360570997247336  0.5483988257874230
  0.8232031533191062  0.3808170592054765  0.5466870702338582
  0.8424568257394043  0.4070419553069513  0.4892579074041521
  0.8543291571904774  0.4806694825907272  0.5352308219523678
  0.8440374309791139  0.5149874287148393  0.5328200870236515
  0.6788834834081428  0.5189704118748679  0.4928609421900347
  0.6590299058210860  0.4905220391309868  0.5479089008185127
  0.6142645132238300  0.4569676867988051  0.5462801117427105
  0.5880295992300972  0.4499664810923250  0.4888665871980606
  0.5145002535285386  0.3882359563251541  0.5350630757163160
  0.4802444829421049  0.3436031864234366  0.5327966717096118
  0.4762748833247556  0.1744058213995459  0.4933510679894866
  0.5047073183255222  0.1830007696062808  0.5484044744858636
  0.5383172368037563  0.1718669481506367  0.5467279918099877
  0.5453715139961375  0.1527130005367070  0.4892554114701539
  0.6070418435620226  0.1407892292087070  0.5353224209665370
  0.6516206908357844  0.1510268242559718  0.5329540718488843
  0.0337752567972487  0.9617248187636989  0.4853475489560850
  0.0336807376252750  0.0865753197422094  0.4856133244851932
  0.9088817320263942  0.9616328359553066  0.4855289199152892
  0.7341735644039815  0.1360910746150452  0.4788922463334941
  0.8589354710822903  0.2609453102088040  0.4929784420856720
  0.7342283630106934  0.2608335107113646  0.4857281734730705
  0.8589590435108931  0.6124482593887279  0.4786760136800439
  0.7341623736642333  0.6124482003263552  0.4923029534315759
  0.7342260842720165  0.4877708315426261  0.4853322174207193
  0.3828230110903803  0.2610150417296566  0.4785955546201706
  0.3828175006763317  0.1361868178021979  0.4926410381002100
  0.5074515792929120  0.2609521847190450  0.4858027532867837
  0.9262938328748263  0.1232309920294909  0.3888220150520922
  0.9685168821851633  0.0823503049349839  0.3893337825113719
  0.7977525184030014  0.1390699915721001  0.3908194930389968
  0.8399588092033383  0.0982055226652605  0.3901676078703389
  0.8725419053914933  0.8176204284907556  0.3880999475639726
  0.9135445368498196  0.9007500927862679  0.3886971147497889
  0.8561922876148884  0.6730747041558089  0.3904799794405065
  0.8971104473964502  0.7561524374064703  0.3898596239697838
  0.1777612350147919  0.0686733730073357  0.3888956569071027
  0.0946636671172030  0.0263970811521972  0.3895837482075564
  0.3222792702878081  0.1976099029260681  0.3904828952493347
  0.2392241072953567  0.1555582743304456  0.3898048003301611
  0.8705060886541318  0.4081900191747465  0.3921034873395683
  0.8519163933652294  0.3289019922346199  0.3961306088105729
  0.7946407423961830  0.4934714351200284  0.3798060680568653
  0.8139722206397195  0.4333980071582957  0.3832607872154696
  0.5868925996194676  0.4767753991640546  0.3916203789229158
  0.6661912677753534  0.5373784866499918  0.3955005514774754
  0.5015660340800636  0.3156106986587588  0.3797216503223098
  0.5615060376467511  0.3950680910697102  0.3828993831073575
  0.5186172060958754  0.1248073556765945  0.3919743894615877
  0.4579403911285738  0.1433850126918017  0.3959172292536266
  0.6796172163859353  0.2004263471641892  0.3799369151114860
  0.6002563499414180  0.1811534679238846  0.3832902222281334
  0.8971294915731320  0.1554030761463210  0.5815197191652643
  0.8561189247232832  0.1974604340058050  0.5809879592731306
  0.9131290698024870  0.0268040985218576  0.5820488094283718
  0.8722303535693499  0.0690046214968945  0.5828042986994859
  0.8397163774664449  0.7561763478569503  0.5810203734438204
  0.7975390244255749  0.6730983102461963  0.5803921983098803
  0.9681527376948651  0.9006791427032113  0.5821041607152395
  0.9258222665492397  0.8175578576716021  0.5827551972696057
  0.2390498932688914  0.0982903045208801  0.5811686524018356
  0.3221055561403290  0.1390726357777794  0.5806071008014442
  0.0946796753653771  0.0829899484474694  0.5813349308562863
  0.1777664490285886  0.1238894487877005  0.5819579964889101
  0.8704180091214440  0.4767552877414971  0.5796785020587976
  0.8518383962817495  0.5374389136413100  0.5754865456487650
  0.7945529080404299  0.3154477146390207  0.5917207604187453
  0.8139120737502523  0.3948726459136012  0.5884615574320904
  0.5184400468118042  0.4082743871097634  0.5794929590730646
  0.4578725249508153  0.3289768128503496  0.5755443431716998
  0.6796347079930527  0.4936420367413561  0.5912338836976474
  0.6002086528425252  0.4336830579254070  0.5881268716857235
  0.5870031346896525  0.1247034761396293  0.5797486367723650
  0.6662429361122122  0.1432141278736410  0.5756366391370804
  0.5015304469446846  0.2004331764964533  0.5917665575233144
  0.5615871549919262  0.1810881665026400  0.5885828374794357
 
  0.00000000E+00  0.00000000E+00  0.00000000E+00
  0.00000000E+00  0.00000000E+00  0.00000000E+00
  0.00000000E+00  0.00000000E+00  0.00000000E+00
  0.00000000E+00  0.00000000E+00  0.00000000E+00
  0.00000000E+00  0.00000000E+00  0.00000000E+00
  0.00000000E+00  0.00000000E+00  0.00000000E+00
  0.00000000E+00  0.00000000E+00  0.00000000E+00
  0.00000000E+00  0.00000000E+00  0.00000000E+00
  0.00000000E+00  0.00000000E+00  0.00000000E+00
  0.00000000E+00  0.00000000E+00  0.00000000E+00
  0.00000000E+00  0.00000000E+00  0.00000000E+00
  0.00000000E+00  0.00000000E+00  0.00000000E+00
  0.00000000E+00  0.00000000E+00  0.00000000E+00
  0.00000000E+00  0.00000000E+00  0.00000000E+00
  0.00000000E+00  0.00000000E+00  0.00000000E+00
  0.00000000E+00  0.00000000E+00  0.00000000E+00
  0.00000000E+00  0.00000000E+00  0.00000000E+00
  0.00000000E+00  0.00000000E+00  0.00000000E+00
  0.00000000E+00  0.00000000E+00  0.00000000E+00
  0.00000000E+00  0.00000000E+00  0.00000000E+00
  0.00000000E+00  0.00000000E+00  0.00000000E+00
  0.00000000E+00  0.00000000E+00  0.00000000E+00
  0.00000000E+00  0.00000000E+00  0.00000000E+00
  0.00000000E+00  0.00000000E+00  0.00000000E+00
  0.00000000E+00  0.00000000E+00  0.00000000E+00
  0.00000000E+00  0.00000000E+00  0.00000000E+00
  0.00000000E+00  0.00000000E+00  0.00000000E+00
  0.00000000E+00  0.00000000E+00  0.00000000E+00
  0.00000000E+00  0.00000000E+00  0.00000000E+00
  0.00000000E+00  0.00000000E+00  0.00000000E+00
  0.00000000E+00  0.00000000E+00  0.00000000E+00
  0.00000000E+00  0.00000000E+00  0.00000000E+00
  0.00000000E+00  0.00000000E+00  0.00000000E+00
  0.00000000E+00  0.00000000E+00  0.00000000E+00
  0.00000000E+00  0.00000000E+00  0.00000000E+00
  0.00000000E+00  0.00000000E+00  0.00000000E+00
  0.00000000E+00  0.00000000E+00  0.00000000E+00
  0.00000000E+00  0.00000000E+00  0.00000000E+00
  0.00000000E+00  0.00000000E+00  0.00000000E+00
  0.00000000E+00  0.00000000E+00  0.00000000E+00
  0.00000000E+00  0.00000000E+00  0.00000000E+00
  0.00000000E+00  0.00000000E+00  0.00000000E+00
  0.00000000E+00  0.00000000E+00  0.00000000E+00
  0.00000000E+00  0.00000000E+00  0.00000000E+00
  0.00000000E+00  0.00000000E+00  0.00000000E+00
  0.00000000E+00  0.00000000E+00  0.00000000E+00
  0.00000000E+00  0.00000000E+00  0.00000000E+00
  0.00000000E+00  0.00000000E+00  0.00000000E+00
  0.00000000E+00  0.00000000E+00  0.00000000E+00
  0.00000000E+00  0.00000000E+00  0.00000000E+00
  0.00000000E+00  0.00000000E+00  0.00000000E+00
  0.00000000E+00  0.00000000E+00  0.00000000E+00
  0.00000000E+00  0.00000000E+00  0.00000000E+00
  0.00000000E+00  0.00000000E+00  0.00000000E+00
  0.00000000E+00  0.00000000E+00  0.00000000E+00
  0.00000000E+00  0.00000000E+00  0.00000000E+00
  0.00000000E+00  0.00000000E+00  0.00000000E+00
  0.00000000E+00  0.00000000E+00  0.00000000E+00
  0.00000000E+00  0.00000000E+00  0.00000000E+00
  0.00000000E+00  0.00000000E+00  0.00000000E+00
  0.00000000E+00  0.00000000E+00  0.00000000E+00
  0.00000000E+00  0.00000000E+00  0.00000000E+00
  0.00000000E+00  0.00000000E+00  0.00000000E+00
  0.00000000E+00  0.00000000E+00  0.00000000E+00
  0.00000000E+00  0.00000000E+00  0.00000000E+00
  0.00000000E+00  0.00000000E+00  0.00000000E+00
  0.00000000E+00  0.00000000E+00  0.00000000E+00
  0.00000000E+00  0.00000000E+00  0.00000000E+00
  0.00000000E+00  0.00000000E+00  0.00000000E+00
  0.00000000E+00  0.00000000E+00  0.00000000E+00
  0.00000000E+00  0.00000000E+00  0.00000000E+00
  0.00000000E+00  0.00000000E+00  0.00000000E+00
  0.00000000E+00  0.00000000E+00  0.00000000E+00
  0.00000000E+00  0.00000000E+00  0.00000000E+00
  0.00000000E+00  0.00000000E+00  0.00000000E+00
  0.00000000E+00  0.00000000E+00  0.00000000E+00
  0.00000000E+00  0.00000000E+00  0.00000000E+00
  0.00000000E+00  0.00000000E+00  0.00000000E+00
  0.00000000E+00  0.00000000E+00  0.00000000E+00
  0.00000000E+00  0.00000000E+00  0.00000000E+00
  0.00000000E+00  0.00000000E+00  0.00000000E+00
  0.00000000E+00  0.00000000E+00  0.00000000E+00
  0.00000000E+00  0.00000000E+00  0.00000000E+00
  0.00000000E+00  0.00000000E+00  0.00000000E+00
  0.00000000E+00  0.00000000E+00  0.00000000E+00
  0.00000000E+00  0.00000000E+00  0.00000000E+00
  0.00000000E+00  0.00000000E+00  0.00000000E+00
  0.00000000E+00  0.00000000E+00  0.00000000E+00
  0.00000000E+00  0.00000000E+00  0.00000000E+00
  0.00000000E+00  0.00000000E+00  0.00000000E+00
  0.00000000E+00  0.00000000E+00  0.00000000E+00
  0.00000000E+00  0.00000000E+00  0.00000000E+00
  0.00000000E+00  0.00000000E+00  0.00000000E+00
  0.00000000E+00  0.00000000E+00  0.00000000E+00
  0.00000000E+00  0.00000000E+00  0.00000000E+00
  0.00000000E+00  0.00000000E+00  0.00000000E+00
  0.00000000E+00  0.00000000E+00  0.00000000E+00
  0.00000000E+00  0.00000000E+00  0.00000000E+00
  0.00000000E+00  0.00000000E+00  0.00000000E+00
  0.00000000E+00  0.00000000E+00  0.00000000E+00
  0.00000000E+00  0.00000000E+00  0.00000000E+00
  0.00000000E+00  0.00000000E+00  0.00000000E+00
  0.00000000E+00  0.00000000E+00  0.00000000E+00
  0.00000000E+00  0.00000000E+00  0.00000000E+00
  0.00000000E+00  0.00000000E+00  0.00000000E+00
  0.00000000E+00  0.00000000E+00  0.00000000E+00
  0.00000000E+00  0.00000000E+00  0.00000000E+00
  0.00000000E+00  0.00000000E+00  0.00000000E+00
  0.00000000E+00  0.00000000E+00  0.00000000E+00
  0.00000000E+00  0.00000000E+00  0.00000000E+00
  0.00000000E+00  0.00000000E+00  0.00000000E+00
  0.00000000E+00  0.00000000E+00  0.00000000E+00
  0.00000000E+00  0.00000000E+00  0.00000000E+00
  0.00000000E+00  0.00000000E+00  0.00000000E+00
  0.00000000E+00  0.00000000E+00  0.00000000E+00
  0.00000000E+00  0.00000000E+00  0.00000000E+00
  0.00000000E+00  0.00000000E+00  0.00000000E+00
  0.00000000E+00  0.00000000E+00  0.00000000E+00
  0.00000000E+00  0.00000000E+00  0.00000000E+00
  0.00000000E+00  0.00000000E+00  0.00000000E+00
  0.00000000E+00  0.00000000E+00  0.00000000E+00
  0.00000000E+00  0.00000000E+00  0.00000000E+00
  0.00000000E+00  0.00000000E+00  0.00000000E+00
  0.00000000E+00  0.00000000E+00  0.00000000E+00
  0.00000000E+00  0.00000000E+00  0.00000000E+00
  0.00000000E+00  0.00000000E+00  0.00000000E+00
  0.00000000E+00  0.00000000E+00  0.00000000E+00
  0.00000000E+00  0.00000000E+00  0.00000000E+00
  0.00000000E+00  0.00000000E+00  0.00000000E+00
  0.00000000E+00  0.00000000E+00  0.00000000E+00
  0.00000000E+00  0.00000000E+00  0.00000000E+00
  0.00000000E+00  0.00000000E+00  0.00000000E+00
  0.00000000E+00  0.00000000E+00  0.00000000E+00
  0.00000000E+00  0.00000000E+00  0.00000000E+00
  0.00000000E+00  0.00000000E+00  0.00000000E+00
  0.00000000E+00  0.00000000E+00  0.00000000E+00
  0.00000000E+00  0.00000000E+00  0.00000000E+00
  0.00000000E+00  0.00000000E+00  0.00000000E+00
  0.00000000E+00  0.00000000E+00  0.00000000E+00
  0.00000000E+00  0.00000000E+00  0.00000000E+00
  0.00000000E+00  0.00000000E+00  0.00000000E+00
  0.00000000E+00  0.00000000E+00  0.00000000E+00
  0.00000000E+00  0.00000000E+00  0.00000000E+00
  0.00000000E+00  0.00000000E+00  0.00000000E+00
  0.00000000E+00  0.00000000E+00  0.00000000E+00
  0.00000000E+00  0.00000000E+00  0.00000000E+00
  0.00000000E+00  0.00000000E+00  0.00000000E+00
  0.00000000E+00  0.00000000E+00  0.00000000E+00
  0.00000000E+00  0.00000000E+00  0.00000000E+00
  0.00000000E+00  0.00000000E+00  0.00000000E+00
  0.00000000E+00  0.00000000E+00  0.00000000E+00
  0.00000000E+00  0.00000000E+00  0.00000000E+00
  0.00000000E+00  0.00000000E+00  0.00000000E+00
  0.00000000E+00  0.00000000E+00  0.00000000E+00
  0.00000000E+00  0.00000000E+00  0.00000000E+00
  0.00000000E+00  0.00000000E+00  0.00000000E+00
