Primitive Cell                          
   1.00000000000000     
    29.3498095674869859    0.0705244856794450    0.0000000000000000
   -14.6140563425816659   25.5295608011687811    0.0000000000000000
     0.0000000000000000    0.0000000000000000   20.0000000000000000
   N    C    H 
    18    48    36
Direct
  0.3018332043852894  0.6139910989547417  0.4906333425307778
  0.3097068218304102  0.6988972141662657  0.4924755423872114
  0.3867475412163728  0.6904934447694089  0.4906288095550053
  0.6972249981071172  0.3861075678763513  0.5145291607786220
  0.6893558419539758  0.3011797400149518  0.5127147462410733
  0.6123839462038916  0.3096607658091912  0.5131569451390305
  0.4665714114561723  0.0403834496089388  0.5995888566224963
  0.6191556709214083  0.1920572876485025  0.5053058318891956
  0.5734276183644553  0.5343214200092419  0.5970998288449820
  0.5729021765915832  0.3799608926667091  0.5070997617779014
  0.9600426829000028  0.4244621070390053  0.5982155452666404
  0.8064402770115322  0.4251090099120063  0.5068700719520862
  0.4070044989032127  0.9806452572609459  0.4667473629503789
  0.3801592967728666  0.8078850674499733  0.5026729579828597
  0.5711666383884335  0.5913075271264532  0.4631501418702086
  0.4255578780018894  0.6195968986131035  0.4998838370237237
  0.0219194841988966  0.4275307734498881  0.4684148430456290
  0.1927884050047908  0.5754527144136503  0.5018079280537080
  0.3544871023560816  0.6382605843912543  0.4905473542841534
  0.2816393662049350  0.6463659851554198  0.4919594272492560
  0.3621014798053679  0.7187322156843905  0.4919253671030503
  0.3972587663657734  0.7759373891583721  0.4922397970239700
  0.3766245526405143  0.6028351793691016  0.4900535028960888
  0.2242325236413194  0.6243903410642062  0.4924625590843874
  0.6445667737425822  0.3618668313014908  0.5138026702959237
  0.7173877346948814  0.3537226920649417  0.5133666943096316
  0.6369724206629499  0.2813823721608344  0.5125050506320221
  0.6018126409783875  0.2241858692240584  0.5116046899096602
  0.6222503812483922  0.3971288407923694  0.5134535340561541
  0.7747904184605972  0.3758282305389073  0.5125894583249604
  0.5842053233279429  0.1382238830647680  0.5079822156661038
  0.5417206423963421  0.1160417919574570  0.5525570150865207
  0.5076463573489889  0.0617296169915704  0.5546179290521565
  0.5155009447091530  0.0291024510335518  0.5089621817373811
  0.4801699500292145  0.9715951516713943  0.5086176366182613
  0.4988260424444633  0.9380553029366396  0.5289872785090637
  0.4675914752154569  0.8839324118089635  0.5279027713902735
  0.5536801593105380  0.4149944792107618  0.5092141916135944
  0.5739566140429986  0.4581602172088353  0.5525554364975207
  0.5534693154555796  0.4923754363770954  0.5535403000280041
  0.5125477437812123  0.4838058916744430  0.5081961067079348
  0.4899704816996362  0.5191515340664097  0.5068878425343897
  0.4380865103338110  0.5010286708764866  0.5277284540843112
  0.4149521269349066  0.5323858988538390  0.5261303493162401
  0.8605389402700538  0.4442515943434557  0.5090799204434617
  0.8835435923762702  0.4239499730396687  0.5526111196311376
  0.9381125147133957  0.4444991124270672  0.5542466463253035
  0.9702614263433702  0.4855233845079852  0.5092960313597104
  0.0280845800966674  0.5086685928427244  0.5087568193352112
  0.0605243670173010  0.5610183114362570  0.5280786290539581
  0.1148967310610871  0.5849941963714187  0.5266925466015167
  0.5589264474819515  0.0521396120402784  0.4658282789914097
  0.5937373137462956  0.1056757635768548  0.4654884620152018
  0.4152647043704718  0.8617861822485722  0.5056234434852982
  0.3955121864302527  0.8945345256313217  0.4865457276260443
  0.4273132074452448  0.9492086390583765  0.4864058954542330
  0.4921872778607153  0.4397005122015045  0.4663633546244981
  0.5112974264721473  0.4048821354657619  0.4670120449312734
  0.4445543451844003  0.5843244650987174  0.5028661850752272
  0.4967004201695318  0.6035102069365905  0.4830872908224251
  0.5197866095749504  0.5715544545728264  0.4834369958084395
  0.9463451145105850  0.5057859519917258  0.4670592087329197
  0.8925384992877952  0.4866176190467684  0.4670776923286084
  0.1385616304600319  0.5558657124067068  0.5050268591646940
  0.1069606523829307  0.5033357917309829  0.4868481598008643
  0.0520142741005998  0.4793016387757447  0.4871503707702090
  0.2117138370954237  0.6537012635435389  0.4844457866774619
  0.3473011783450914  0.5614551374572869  0.4811552615310646
  0.4387808186636946  0.7879728720869110  0.4830236912298957
  0.7874793325634428  0.3462710224769481  0.5153240590601413
  0.6518347097051631  0.4390069487648134  0.5170012834881561
  0.5597854397913409  0.2120535441734148  0.5151096563651478
  0.5391710321532130  0.9557265683417242  0.5469115719949258
  0.4828240342233272  0.8591048385852957  0.5459862187284443
  0.5362505531878270  0.1411868378260337  0.5879991011962247
  0.4685309371409119  0.0620722776949947  0.6398787519532974
  0.4488692159385295  0.0012706906229738  0.6075745047764514
  0.4158929691120434  0.4610418058670831  0.5465813545899181
  0.3751768639746729  0.5176065243821384  0.5446978172844013
  0.6049053613855264  0.4642285349146960  0.5877903189946565
  0.5933560392985768  0.5328775106986470  0.6375784612361599
  0.5518739640295109  0.5521912781944067  0.6046006082564617
  0.0417090621162473  0.5829077947930159  0.5454566720889247
  0.1387638229658563  0.6251230634414497  0.5441213877827238
  0.8588059675786894  0.3929898866267578  0.5876322049126088
  0.9385769261899313  0.4047171551583375  0.6385910632450802
  0.9992103647566779  0.4459692312215680  0.6062752359576535
  0.5650101765159548  0.0266411669876661  0.4317488110658445
  0.6274277643751915  0.1232631229390790  0.4320638613239183
  0.3546782331310325  0.8763249917471967  0.4704474094812525
  0.4329297851808747  0.0185700246464933  0.4562289621559330
  0.3744136415659582  0.9642380776938140  0.4378976861992214
  0.4602855423656251  0.4330589440636956  0.4325390790977863
  0.4952208837854073  0.3706465043545109  0.4346169153923540
  0.5188888430387166  0.6440259000057225  0.4661182988986212
  0.5832918495784654  0.5651853782099678  0.4531138997484945
  0.5869122687581907  0.6234871195446630  0.4336925879453588
  0.9714071814304646  0.5376402653099248  0.4333561769662282
  0.8743036624689324  0.5025783278355362  0.4342616360417040
  0.1262985433323607  0.4815499164978974  0.4711282318304697
  0.9835368905266151  0.4143158519483450  0.4582878942356459
  0.0391948023301865  0.4119237401652356  0.4398749204431809
 
  0.00000000E+00  0.00000000E+00  0.00000000E+00
  0.00000000E+00  0.00000000E+00  0.00000000E+00
  0.00000000E+00  0.00000000E+00  0.00000000E+00
  0.00000000E+00  0.00000000E+00  0.00000000E+00
  0.00000000E+00  0.00000000E+00  0.00000000E+00
  0.00000000E+00  0.00000000E+00  0.00000000E+00
  0.00000000E+00  0.00000000E+00  0.00000000E+00
  0.00000000E+00  0.00000000E+00  0.00000000E+00
  0.00000000E+00  0.00000000E+00  0.00000000E+00
  0.00000000E+00  0.00000000E+00  0.00000000E+00
  0.00000000E+00  0.00000000E+00  0.00000000E+00
  0.00000000E+00  0.00000000E+00  0.00000000E+00
  0.00000000E+00  0.00000000E+00  0.00000000E+00
  0.00000000E+00  0.00000000E+00  0.00000000E+00
  0.00000000E+00  0.00000000E+00  0.00000000E+00
  0.00000000E+00  0.00000000E+00  0.00000000E+00
  0.00000000E+00  0.00000000E+00  0.00000000E+00
  0.00000000E+00  0.00000000E+00  0.00000000E+00
  0.00000000E+00  0.00000000E+00  0.00000000E+00
  0.00000000E+00  0.00000000E+00  0.00000000E+00
  0.00000000E+00  0.00000000E+00  0.00000000E+00
  0.00000000E+00  0.00000000E+00  0.00000000E+00
  0.00000000E+00  0.00000000E+00  0.00000000E+00
  0.00000000E+00  0.00000000E+00  0.00000000E+00
  0.00000000E+00  0.00000000E+00  0.00000000E+00
  0.00000000E+00  0.00000000E+00  0.00000000E+00
  0.00000000E+00  0.00000000E+00  0.00000000E+00
  0.00000000E+00  0.00000000E+00  0.00000000E+00
  0.00000000E+00  0.00000000E+00  0.00000000E+00
  0.00000000E+00  0.00000000E+00  0.00000000E+00
  0.00000000E+00  0.00000000E+00  0.00000000E+00
  0.00000000E+00  0.00000000E+00  0.00000000E+00
  0.00000000E+00  0.00000000E+00  0.00000000E+00
  0.00000000E+00  0.00000000E+00  0.00000000E+00
  0.00000000E+00  0.00000000E+00  0.00000000E+00
  0.00000000E+00  0.00000000E+00  0.00000000E+00
  0.00000000E+00  0.00000000E+00  0.00000000E+00
  0.00000000E+00  0.00000000E+00  0.00000000E+00
  0.00000000E+00  0.00000000E+00  0.00000000E+00
  0.00000000E+00  0.00000000E+00  0.00000000E+00
  0.00000000E+00  0.00000000E+00  0.00000000E+00
  0.00000000E+00  0.00000000E+00  0.00000000E+00
  0.00000000E+00  0.00000000E+00  0.00000000E+00
  0.00000000E+00  0.00000000E+00  0.00000000E+00
  0.00000000E+00  0.00000000E+00  0.00000000E+00
  0.00000000E+00  0.00000000E+00  0.00000000E+00
  0.00000000E+00  0.00000000E+00  0.00000000E+00
  0.00000000E+00  0.00000000E+00  0.00000000E+00
  0.00000000E+00  0.00000000E+00  0.00000000E+00
  0.00000000E+00  0.00000000E+00  0.00000000E+00
  0.00000000E+00  0.00000000E+00  0.00000000E+00
  0.00000000E+00  0.00000000E+00  0.00000000E+00
  0.00000000E+00  0.00000000E+00  0.00000000E+00
  0.00000000E+00  0.00000000E+00  0.00000000E+00
  0.00000000E+00  0.00000000E+00  0.00000000E+00
  0.00000000E+00  0.00000000E+00  0.00000000E+00
  0.00000000E+00  0.00000000E+00  0.00000000E+00
  0.00000000E+00  0.00000000E+00  0.00000000E+00
  0.00000000E+00  0.00000000E+00  0.00000000E+00
  0.00000000E+00  0.00000000E+00  0.00000000E+00
  0.00000000E+00  0.00000000E+00  0.00000000E+00
  0.00000000E+00  0.00000000E+00  0.00000000E+00
  0.00000000E+00  0.00000000E+00  0.00000000E+00
  0.00000000E+00  0.00000000E+00  0.00000000E+00
  0.00000000E+00  0.00000000E+00  0.00000000E+00
  0.00000000E+00  0.00000000E+00  0.00000000E+00
  0.00000000E+00  0.00000000E+00  0.00000000E+00
  0.00000000E+00  0.00000000E+00  0.00000000E+00
  0.00000000E+00  0.00000000E+00  0.00000000E+00
  0.00000000E+00  0.00000000E+00  0.00000000E+00
  0.00000000E+00  0.00000000E+00  0.00000000E+00
  0.00000000E+00  0.00000000E+00  0.00000000E+00
  0.00000000E+00  0.00000000E+00  0.00000000E+00
  0.00000000E+00  0.00000000E+00  0.00000000E+00
  0.00000000E+00  0.00000000E+00  0.00000000E+00
  0.00000000E+00  0.00000000E+00  0.00000000E+00
  0.00000000E+00  0.00000000E+00  0.00000000E+00
  0.00000000E+00  0.00000000E+00  0.00000000E+00
  0.00000000E+00  0.00000000E+00  0.00000000E+00
  0.00000000E+00  0.00000000E+00  0.00000000E+00
  0.00000000E+00  0.00000000E+00  0.00000000E+00
  0.00000000E+00  0.00000000E+00  0.00000000E+00
  0.00000000E+00  0.00000000E+00  0.00000000E+00
  0.00000000E+00  0.00000000E+00  0.00000000E+00
  0.00000000E+00  0.00000000E+00  0.00000000E+00
  0.00000000E+00  0.00000000E+00  0.00000000E+00
  0.00000000E+00  0.00000000E+00  0.00000000E+00
  0.00000000E+00  0.00000000E+00  0.00000000E+00
  0.00000000E+00  0.00000000E+00  0.00000000E+00
  0.00000000E+00  0.00000000E+00  0.00000000E+00
  0.00000000E+00  0.00000000E+00  0.00000000E+00
  0.00000000E+00  0.00000000E+00  0.00000000E+00
  0.00000000E+00  0.00000000E+00  0.00000000E+00
  0.00000000E+00  0.00000000E+00  0.00000000E+00
  0.00000000E+00  0.00000000E+00  0.00000000E+00
  0.00000000E+00  0.00000000E+00  0.00000000E+00
  0.00000000E+00  0.00000000E+00  0.00000000E+00
  0.00000000E+00  0.00000000E+00  0.00000000E+00
  0.00000000E+00  0.00000000E+00  0.00000000E+00
  0.00000000E+00  0.00000000E+00  0.00000000E+00
  0.00000000E+00  0.00000000E+00  0.00000000E+00
  0.00000000E+00  0.00000000E+00  0.00000000E+00
