Primitive Cell                          
   1.00000000000000     
    27.3898673041655840    0.0294735389771082    0.0000000000000000
   -13.6696672522563301   24.0373302550617645    0.0000000000000000
     0.0000000000000000    0.0000000000000000   20.0000000000000000
   N    C    H 
    36    54    18
Direct
  0.1473429245554954  0.5321720251480144  0.5883600817450443
  0.1461053036305842  0.6180660422844966  0.5888807116105781
  0.2147945580712616  0.6086367167782427  0.6519676460877477
  0.0376257967584479  0.5618435419464731  0.5386699036433029
  0.2605980462773942  0.5468463150876204  0.6939664077624315
  0.2408036210278652  0.7349003676914876  0.5876804148804737
  0.3114342505920220  0.7629811783662959  0.6975126002349157
  0.2894920038481459  0.5042589977813066  0.5849644173572131
  0.4101883913598314  0.8758756734313664  0.5942677135001517
  0.4979411380125072  0.8766933836489486  0.5962360316201227
  0.4189556817517612  0.8067410033599671  0.6551581277470859
  0.4941123950512321  0.6150510982312625  0.5848213239030500
  0.4077359641173572  0.5286763211259711  0.5838720728034730
  0.4167006043658859  0.6038545134509619  0.6504818768610150
  0.8843700581717329  0.4816125647503213  0.4401967274026504
  0.8842510373419756  0.3951237848178337  0.4446614323304559
  0.8166070039146263  0.4037467688617156  0.3786018125441259
  0.6248337128900801  0.1351129247167790  0.4494283493455953
  0.5382532030571667  0.1365766748791870  0.4466611280344850
  0.6163839506676680  0.2016934652696065  0.3824190337196569
  0.5327230302688548  0.3937601038296421  0.4339089704437242
  0.6201263412424964  0.4790911714942325  0.4334251640597344
  0.6109011767110317  0.4010316930953195  0.3730892334770388
  0.5500601948980304  0.9855373026755743  0.5523455732993554
  0.5465774899952720  0.5597003549992010  0.5314757570569668
  0.4773407024216780  0.7086738209862844  0.6961500719585416
  0.7430900724723628  0.2278403990084428  0.4501220657397127
  0.5094236247372805  0.2765715701880893  0.4401060334117659
  0.7899489588931132  0.5057978228834088  0.4383725441187423
  0.9928842303033107  0.4516425701812068  0.4933194659724833
  0.4853184621547797  0.0295141145574433  0.4982192791907210
  0.4809320132285535  0.4518396903894555  0.4793025174736130
  0.5220419393506646  0.7828776290974062  0.5906493752724344
  0.7724991988370107  0.2966784952513066  0.3391807355034260
  0.5544293509025238  0.2459993099683544  0.3349396645105642
  0.7179350586896831  0.4608297589246106  0.3302290213988854
  0.1931639235455336  0.5569880453017078  0.6270995821087197
  0.1228930204937484  0.5633933550529164  0.5757184227944947
  0.1928239686802513  0.6386090371656934  0.6260635809880384
  0.0664447930116339  0.5343146815690716  0.5438657090197907
  0.0435940246551354  0.4790486913747145  0.5212444273461543
  0.2299028631267461  0.6991646636341642  0.6379804644599218
  0.2619383261249837  0.7170963150186225  0.6976660802077035
  0.2290779990443426  0.5312961975744344  0.6383121043637132
  0.2396203533678687  0.5022149747075062  0.5876896295488763
  0.3071334912662280  0.5434946023609086  0.6945785664008568
  0.2882324184062384  0.7840532191798388  0.5907158873192913
  0.3890367673270774  0.8294698554524089  0.6313131783956649
  0.4660759434537383  0.9001601493088316  0.5832508051856635
  0.4714787367411546  0.8291280424725471  0.6308547633906585
  0.4688187293947976  0.6343506285846772  0.6257245790985166
  0.4629218473760872  0.5605576520392219  0.5702154508946720
  0.3866520125240811  0.5532132296161834  0.6230504866708557
  0.8378074592150639  0.4555459854611570  0.4029031797097673
  0.9080269730621069  0.4502610282510346  0.4555203555101173
  0.8387153802349232  0.3742072432724655  0.4053293581544466
  0.6462619174379327  0.1804626027902430  0.4105281864847115
  0.5694348151674333  0.1126927394275299  0.4619406201239826
  0.5639037849968176  0.1808562408160412  0.4062258993513126
  0.5588479058918097  0.3719856017625105  0.3986808701912778
  0.5644764173641761  0.4485684997283386  0.4458621756284629
  0.6409685800147074  0.4531926282781171  0.3961891519387919
  0.9868286028921389  0.5344247327545801  0.5109325686400581
  0.5738425406049146  0.0358247800319376  0.5243688215657727
  0.5697872822381385  0.5327134282926522  0.5019213833215517
  0.3274801568833539  0.7942325580423955  0.6418569907882201
  0.4955379696575264  0.7918599112807598  0.6411580932032024
  0.4804019135087287  0.7578621800992309  0.6990417062355121
  0.4942848418072643  0.6948093583762187  0.6398752077531498
  0.3255180264097746  0.5294178723901908  0.6351384702115652
  0.8034123315208745  0.3131695153619845  0.3952999570335294
  0.7927782444071241  0.2747658754942748  0.4471957437317613
  0.7074971233611791  0.2166057920569102  0.3991402951575864
  0.5380506827170990  0.2160292991032193  0.3915654846056711
  0.5076633251543470  0.2272668771874820  0.4400684686481711
  0.5353459118122998  0.3111634845069560  0.3891593576163217
  0.7024409485122192  0.4781024349740903  0.3849095672031737
  0.7422851410671925  0.5081416002680541  0.4348488430711583
  0.8003535265051767  0.4791357482322596  0.3894648813943746
  0.9641893753527384  0.4792988446837398  0.4878753491378518
  0.4936503911211716  0.9567311371990854  0.5530704936956283
  0.4615878591675795  0.9794691306217800  0.5268716007941805
  0.5417145441032503  0.0577993016217420  0.4961851535035819
  0.4902320378637981  0.5327097156800704  0.5352143824346740
  0.4576323753939562  0.4790567196423368  0.5079461824099383
  0.5373008411722822  0.4783120208735951  0.4767620537731005
  0.5244890674790810  0.7356539365876955  0.5912397174502004
  0.7262478218682986  0.2476253923725480  0.3390068705426827
  0.5506400245829681  0.2918031142364867  0.3315115802345616
  0.7675586288708089  0.4636108829903236  0.3302981278851789
  0.0673847838903470  0.4571327371322198  0.5260151501981269
  0.2481426892991365  0.6929163498000506  0.7437792106973546
  0.2098210280123141  0.4808004407139634  0.5473265772318499
  0.3315213705268008  0.5541169778857906  0.7407273203508851
  0.2965968854211383  0.8135500299909069  0.5501560471102067
  0.9627435276959844  0.5560947490387917  0.5067035623600020
  0.6196132690714080  0.0599410420316246  0.5238642958840387
  0.6154712804701035  0.5541887831351957  0.4981438860669840
  0.4687402023404204  0.7699263884021832  0.7457475739185355
  0.8223066864996937  0.2834889178323792  0.4881725816994660
  0.4854228708935153  0.1984614269542533  0.4808399065453912
  0.7342360838926325  0.5306779463803011  0.4741920630013112
  0.4158271466350598  0.9560733746605621  0.5290731488497329
  0.4118861472387678  0.4583852455231749  0.5097403421869799
  0.5471209743056136  0.7287849477073465  0.5507733434894106
  0.7023647204563233  0.2334277511877332  0.2925697382579528
  0.5618317570425049  0.3148466163077899  0.2845017944494543
  0.7809090977785829  0.4514665509944180  0.2849191781122826
 
  0.00000000E+00  0.00000000E+00  0.00000000E+00
  0.00000000E+00  0.00000000E+00  0.00000000E+00
  0.00000000E+00  0.00000000E+00  0.00000000E+00
  0.00000000E+00  0.00000000E+00  0.00000000E+00
  0.00000000E+00  0.00000000E+00  0.00000000E+00
  0.00000000E+00  0.00000000E+00  0.00000000E+00
  0.00000000E+00  0.00000000E+00  0.00000000E+00
  0.00000000E+00  0.00000000E+00  0.00000000E+00
  0.00000000E+00  0.00000000E+00  0.00000000E+00
  0.00000000E+00  0.00000000E+00  0.00000000E+00
  0.00000000E+00  0.00000000E+00  0.00000000E+00
  0.00000000E+00  0.00000000E+00  0.00000000E+00
  0.00000000E+00  0.00000000E+00  0.00000000E+00
  0.00000000E+00  0.00000000E+00  0.00000000E+00
  0.00000000E+00  0.00000000E+00  0.00000000E+00
  0.00000000E+00  0.00000000E+00  0.00000000E+00
  0.00000000E+00  0.00000000E+00  0.00000000E+00
  0.00000000E+00  0.00000000E+00  0.00000000E+00
  0.00000000E+00  0.00000000E+00  0.00000000E+00
  0.00000000E+00  0.00000000E+00  0.00000000E+00
  0.00000000E+00  0.00000000E+00  0.00000000E+00
  0.00000000E+00  0.00000000E+00  0.00000000E+00
  0.00000000E+00  0.00000000E+00  0.00000000E+00
  0.00000000E+00  0.00000000E+00  0.00000000E+00
  0.00000000E+00  0.00000000E+00  0.00000000E+00
  0.00000000E+00  0.00000000E+00  0.00000000E+00
  0.00000000E+00  0.00000000E+00  0.00000000E+00
  0.00000000E+00  0.00000000E+00  0.00000000E+00
  0.00000000E+00  0.00000000E+00  0.00000000E+00
  0.00000000E+00  0.00000000E+00  0.00000000E+00
  0.00000000E+00  0.00000000E+00  0.00000000E+00
  0.00000000E+00  0.00000000E+00  0.00000000E+00
  0.00000000E+00  0.00000000E+00  0.00000000E+00
  0.00000000E+00  0.00000000E+00  0.00000000E+00
  0.00000000E+00  0.00000000E+00  0.00000000E+00
  0.00000000E+00  0.00000000E+00  0.00000000E+00
  0.00000000E+00  0.00000000E+00  0.00000000E+00
  0.00000000E+00  0.00000000E+00  0.00000000E+00
  0.00000000E+00  0.00000000E+00  0.00000000E+00
  0.00000000E+00  0.00000000E+00  0.00000000E+00
  0.00000000E+00  0.00000000E+00  0.00000000E+00
  0.00000000E+00  0.00000000E+00  0.00000000E+00
  0.00000000E+00  0.00000000E+00  0.00000000E+00
  0.00000000E+00  0.00000000E+00  0.00000000E+00
  0.00000000E+00  0.00000000E+00  0.00000000E+00
  0.00000000E+00  0.00000000E+00  0.00000000E+00
  0.00000000E+00  0.00000000E+00  0.00000000E+00
  0.00000000E+00  0.00000000E+00  0.00000000E+00
  0.00000000E+00  0.00000000E+00  0.00000000E+00
  0.00000000E+00  0.00000000E+00  0.00000000E+00
  0.00000000E+00  0.00000000E+00  0.00000000E+00
  0.00000000E+00  0.00000000E+00  0.00000000E+00
  0.00000000E+00  0.00000000E+00  0.00000000E+00
  0.00000000E+00  0.00000000E+00  0.00000000E+00
  0.00000000E+00  0.00000000E+00  0.00000000E+00
  0.00000000E+00  0.00000000E+00  0.00000000E+00
  0.00000000E+00  0.00000000E+00  0.00000000E+00
  0.00000000E+00  0.00000000E+00  0.00000000E+00
  0.00000000E+00  0.00000000E+00  0.00000000E+00
  0.00000000E+00  0.00000000E+00  0.00000000E+00
  0.00000000E+00  0.00000000E+00  0.00000000E+00
  0.00000000E+00  0.00000000E+00  0.00000000E+00
  0.00000000E+00  0.00000000E+00  0.00000000E+00
  0.00000000E+00  0.00000000E+00  0.00000000E+00
  0.00000000E+00  0.00000000E+00  0.00000000E+00
  0.00000000E+00  0.00000000E+00  0.00000000E+00
  0.00000000E+00  0.00000000E+00  0.00000000E+00
  0.00000000E+00  0.00000000E+00  0.00000000E+00
  0.00000000E+00  0.00000000E+00  0.00000000E+00
  0.00000000E+00  0.00000000E+00  0.00000000E+00
  0.00000000E+00  0.00000000E+00  0.00000000E+00
  0.00000000E+00  0.00000000E+00  0.00000000E+00
  0.00000000E+00  0.00000000E+00  0.00000000E+00
  0.00000000E+00  0.00000000E+00  0.00000000E+00
  0.00000000E+00  0.00000000E+00  0.00000000E+00
  0.00000000E+00  0.00000000E+00  0.00000000E+00
  0.00000000E+00  0.00000000E+00  0.00000000E+00
  0.00000000E+00  0.00000000E+00  0.00000000E+00
  0.00000000E+00  0.00000000E+00  0.00000000E+00
  0.00000000E+00  0.00000000E+00  0.00000000E+00
  0.00000000E+00  0.00000000E+00  0.00000000E+00
  0.00000000E+00  0.00000000E+00  0.00000000E+00
  0.00000000E+00  0.00000000E+00  0.00000000E+00
  0.00000000E+00  0.00000000E+00  0.00000000E+00
  0.00000000E+00  0.00000000E+00  0.00000000E+00
  0.00000000E+00  0.00000000E+00  0.00000000E+00
  0.00000000E+00  0.00000000E+00  0.00000000E+00
  0.00000000E+00  0.00000000E+00  0.00000000E+00
  0.00000000E+00  0.00000000E+00  0.00000000E+00
  0.00000000E+00  0.00000000E+00  0.00000000E+00
  0.00000000E+00  0.00000000E+00  0.00000000E+00
  0.00000000E+00  0.00000000E+00  0.00000000E+00
  0.00000000E+00  0.00000000E+00  0.00000000E+00
  0.00000000E+00  0.00000000E+00  0.00000000E+00
  0.00000000E+00  0.00000000E+00  0.00000000E+00
  0.00000000E+00  0.00000000E+00  0.00000000E+00
  0.00000000E+00  0.00000000E+00  0.00000000E+00
  0.00000000E+00  0.00000000E+00  0.00000000E+00
  0.00000000E+00  0.00000000E+00  0.00000000E+00
  0.00000000E+00  0.00000000E+00  0.00000000E+00
  0.00000000E+00  0.00000000E+00  0.00000000E+00
  0.00000000E+00  0.00000000E+00  0.00000000E+00
  0.00000000E+00  0.00000000E+00  0.00000000E+00
  0.00000000E+00  0.00000000E+00  0.00000000E+00
  0.00000000E+00  0.00000000E+00  0.00000000E+00
  0.00000000E+00  0.00000000E+00  0.00000000E+00
  0.00000000E+00  0.00000000E+00  0.00000000E+00
  0.00000000E+00  0.00000000E+00  0.00000000E+00
