Primitive Cell                          
   1.00000000000000     
    34.1109168638369340    0.0040234882836379    0.0000000000000000
   -17.0416776294517973   29.5451864888012352    0.0000000000000000
     0.0000000000000000    0.0000000000000000   20.0000000000000000
   C    H    N 
    96    72    12
Direct
  0.9702400216672444  0.0244998292083523  0.4808996916720574
  0.9479454242290402  0.9770742507579868  0.4807717765267085
  0.9724330812092603  0.9540936919814484  0.4810044305287136
  0.0198605085969987  0.9791847645120768  0.4810407275219362
  0.0428103738421797  0.0266428660323754  0.4812251586866338
  0.0176827461504345  0.0489676618488133  0.4809681324605819
  0.8029653057794093  0.2677172741076745  0.4929623707248751
  0.7557526365795155  0.2428919295769632  0.4865974433913536
  0.7324492929940192  0.1958056445554490  0.4779904758593929
  0.7571841609919758  0.1732078577757505  0.4762489040679299
  0.8047034077524060  0.1972178486475826  0.4826762312012391
  0.8271353183127914  0.2445693651220893  0.4907901931565917
  0.7288016990094874  0.5439624439769588  0.4933018991449458
  0.7535207274820905  0.5214830230676384  0.4863752226565552
  0.8005843548136653  0.5451669359135494  0.4776339571332286
  0.8232685246511551  0.5924856414062418  0.4761792716765783
  0.7993369393898391  0.6160678813444136  0.4830126159627071
  0.7520118585624544  0.5912570993559640  0.4913851647673440
  0.4530133623279724  0.1937533825107565  0.4941356524182794
  0.4754577104123499  0.2409617104174160  0.4876054977811464
  0.4517376906786481  0.2643350546009984  0.4789433418598179
  0.4044319036016688  0.2397101360318743  0.4772484290728443
  0.3808765499728821  0.1922007193544459  0.4837739002700800
  0.4057215862391388  0.1696878692020505  0.4920353732299887
  0.8307136314496972  0.1732042330244354  0.4816774651513072
  0.8778892032211445  0.1261481148736578  0.4843471852717940
  0.9011285283745778  0.1720324624784979  0.4629310567816418
  0.8761593865950346  0.1943166297932848  0.4616708127407421
  0.9521843891849429  0.0827337476916910  0.4368210887626631
  0.9502269343229841  0.1978836121247269  0.4430203839644236
  0.8233742910378652  0.6660641881781331  0.4822158783888568
  0.8704197867489185  0.7602225352876744  0.4851260622193294
  0.8244928998993117  0.7376597680190926  0.4640023735107874
  0.8022075445914467  0.6904308113064772  0.4625325884794194
  0.9142321715171704  0.8778391403712433  0.4369656604435477
  0.7986307252925116  0.7610130950067955  0.4446145409431494
  0.3308855259403671  0.1662748825041760  0.4827282354867748
  0.2367157510303528  0.1191666222063859  0.4854060291598046
  0.2593517829096257  0.0958328803985751  0.4643216535155474
  0.3065774250912483  0.1207741589692901  0.4629992491557644
  0.1191983504152603  0.0447692398816457  0.4375712953278139
  0.2361390180183136  0.0466398683959355  0.4448563910468408
  0.8528801419362608  0.3479964533562026  0.4523366749954860
  0.8436973744939280  0.4491295410546314  0.4784819269501810
  0.8191054363339418  0.4499390774554826  0.4218690359846065
  0.8079000997651491  0.4840799131139022  0.4205135780011560
  0.8223028901156439  0.5169751705163108  0.4708743324157112
  0.8020899012684879  0.4142869336168076  0.3681430343501191
  0.6484013221199163  0.5138504429011945  0.4534253652673783
  0.5473853466561494  0.4035170695238222  0.4796937330470143
  0.5465705881439931  0.3781770331884573  0.4229914117854818
  0.5125961987925294  0.3327990478089120  0.4217276388132163
  0.4798381041483424  0.3142297583771878  0.4722576298795715
  0.5820597016349041  0.3969736074485439  0.3690560643878413
  0.4829835049305444  0.1434049041153500  0.4537602982810043
  0.5932593910626238  0.1523542878096293  0.4793500629496847
  0.6185373450450555  0.1769727750842094  0.4226802932777289
  0.6638967079606459  0.1882840075155841  0.4211476139320780
  0.6825317298934124  0.1739725991231964  0.4714422161938217
  0.5996882821345366  0.1938658182954711  0.3690681146668808
  0.8117519117817693  0.1280437548007356  0.5028728435301701
  0.8996248812958001  0.0976268615424658  0.4866691189301520
  0.8886524124394910  0.0636072498420432  0.5359341123496790
  0.9116549089004025  0.0393544507236072  0.5320263163184862
  0.9443460808765565  0.0485814341701811  0.4828949619675313
  0.8557539306044646  0.0533492444906614  0.5924318082759896
  0.8685642737588353  0.6921820014010436  0.5033031668980001
  0.8989672625790632  0.8104534836907362  0.4873473583312560
  0.9327981893558643  0.8334639442298055  0.5368466355661141
  0.9572168501598100  0.8806892458943523  0.5327385653695487
  0.9482900284115345  0.9041292839133490  0.4831680106051977
  0.9426067412830790  0.8107815209616405  0.5937982312321992
  0.3047085894288699  0.1853537984561342  0.5035930320247886
  0.1864787310658542  0.0973639539934013  0.4876549742183229
  0.1633322590952417  0.1082141138383506  0.5369016795115868
  0.1161043499545187  0.0851648133688840  0.5328204166901855
  0.0927731374696990  0.0525483621277942  0.4835292819640244
  0.1858905446952903  0.1409889441431034  0.5935323519951510
  0.8236106873094400  0.3174167161676209  0.5003803583034454
  0.8440221956088720  0.4063828907779055  0.4937984450228043
  0.8194578369849310  0.3805499606767810  0.5501130413517217
  0.8087362283516200  0.3353461208057738  0.5509528556378456
  0.8515634497223985  0.5161146281684239  0.5193738110460444
  0.8021032744915217  0.3986697241008486  0.6041121617331413
  0.6791378162563717  0.5150008785243259  0.5010590768313179
  0.5901513016935453  0.4465675989124733  0.4949120835244400
  0.6161857006992975  0.4476819705260340  0.5508852368165194
  0.6613966683250680  0.4821035203872839  0.5514771589343326
  0.4806528221991329  0.3442758423726247  0.5208486856503427
  0.5982792445562737  0.4121106935130001  0.6047296807485765
  0.4819909111028764  0.1730129823650444  0.5015271478786474
  0.5502679753962170  0.1521794301388724  0.4948395865938195
  0.5493668436429573  0.1771878746141269  0.5508572813706536
  0.5150153625032914  0.1880974421100206  0.5517614920279428
  0.6525169582833854  0.1446290601896507  0.5199583017942970
  0.5850773473034110  0.1947543545841484  0.6044974416852256
  0.0391716337304189  0.9615456566119320  0.4817341879780557
  0.0352959443041243  0.0858999829143627  0.4816215657587577
  0.9110212354532692  0.9577688233527084  0.4813043047135039
  0.7394147264237532  0.1367616029416823  0.4676263669282861
  0.8637393050062983  0.2634829634108300  0.4977845138086892
  0.7366356887111607  0.2607051207883231  0.4880076006770935
  0.8596960663621118  0.6110855592032181  0.4674392145914723
  0.7331649343285846  0.6089970391290791  0.4987781177462622
  0.7356394446449528  0.4845613838621716  0.4875563518637023
  0.3858252039373582  0.2575594811598094  0.4686008239131354
  0.3879954029850197  0.1330952091158792  0.4991357281882998
  0.5123750635239688  0.2600105949394802  0.4889302245111580
  0.8929694607513667  0.2293244006392854  0.4441702282286499
  0.9767576502814492  0.0909853325460972  0.3964476535180879
  0.9553556426974694  0.1876981292489219  0.3931995060262992
  0.9623443967785690  0.2344000072582517  0.4427433475260401
  0.9714700835038883  0.1913314167046209  0.4772255565236208
  0.7671611388811712  0.6722794944900272  0.4451877929809740
  0.9061622947008843  0.8941544315316605  0.3963520428745255
  0.8085661526740751  0.7762842861009602  0.3947444509876235
  0.7621077392932634  0.7367059388212951  0.4447173320355233
  0.8054168754397537  0.7888183125941239  0.4789361725546470
  0.3247776200076942  0.1038924480320702  0.4457318912476467
  0.1029751873737084  0.0201829102535456  0.3971770461422608
  0.2208870535353000  0.0412964663916995  0.3949561796271368
  0.2605357325716824  0.0345014132283055  0.4449917864278916
  0.2083269366818570  0.0255534659065759  0.4791148508551615
  0.7860287444807028  0.4841999566165995  0.3806762208744772
  0.8674172300729239  0.3366493805203561  0.4132812397976906
  0.7817161977389304  0.3801321263738089  0.3893207395773786
  0.7811184536146101  0.4198698287508691  0.3320259375845538
  0.8302681809473285  0.4144037001272878  0.3414336333535175
  0.5124646463863343  0.3108477772913076  0.3818079780276378
  0.6595946278136324  0.5398499502303267  0.4145858890951928
  0.6163013319788817  0.4110405448676957  0.3900217475734706
  0.5766372911100035  0.3704827943581961  0.3329303694209855
  0.5815656262118694  0.4248629373218478  0.3423976602297998
  0.6858040115440076  0.2101949585508578  0.3812718121397793
  0.4569402767616140  0.1287697179613119  0.4149650680830987
  0.5858815479137434  0.2142012249240182  0.3903508007884895
  0.6260741588786800  0.2148364278017496  0.3327602860766987
  0.5715915320732634  0.1656081837603480  0.3425728291876666
  0.9049876030295607  0.0135470080667730  0.5697170167230468
  0.7769212182496759  0.1095041398812882  0.5213170844805575
  0.8597164668049686  0.0843588493966720  0.6153933060301142
  0.8206448588058493  0.0344082612084975  0.5746489956578529
  0.8607576350311561  0.0333300887065135  0.6310436378229340
  0.9829053227767943  0.8998335016521395  0.5705600667509003
  0.8871236708391095  0.6758429318910117  0.5215714842970911
  0.9114208140115210  0.7837724036978457  0.6163610313000163
  0.9616686232471849  0.7945840286601822  0.5766116602796671
  0.9623301877466162  0.8357685456715345  0.6325840565098844
  0.0968714121351155  0.0917439873695969  0.5704622999410560
  0.3209874999569777  0.2202611127057565  0.5217294238755770
  0.2129476995176702  0.1369993593452179  0.6163852944216544
  0.2020017546939528  0.1761356446032849  0.5759329842213816
  0.1608616279690835  0.1358648551982142  0.6321716703507718
  0.7870222258363810  0.3130586798230368  0.5906640978834972
  0.8657602177844694  0.5421162417504846  0.5582802016981177
  0.7814497315257967  0.4122215753245015  0.5831832513195110
  0.7813342162554946  0.3719138981101651  0.6400548632742584
  0.8301162214375140  0.4267695624312324  0.6309828614447710
  0.6838367029027452  0.4825488933026989  0.5908458549053037
  0.4547786075727842  0.3323712445978018  0.5599475605604951
  0.5848309610440339  0.3779798876846030  0.5836011927881870
  0.6251467455083386  0.4181192033316350  0.6404848296838850
  0.5701625471103284  0.4118552121047045  0.6318327971508282
  0.5147135829518987  0.2101004251253542  0.5912448758290907
  0.6644192978282959  0.1304608661484039  0.5587791733565055
  0.6191626147808122  0.2154418157552982  0.5832373171297007
  0.5791766948445343  0.2155845945221202  0.6404690224240781
  0.5853836688229421  0.1668511283881529  0.6314116509346022
  0.9305504836748852  0.1061657578191628  0.4384922273707303
  0.8906528548881241  0.8327962345454978  0.4388187709071261
  0.1642465739562127  0.0664392345402618  0.4394285817815557
  0.8617503907984556  0.3908398984173616  0.4479957395630123
  0.6055609120066023  0.4799076401660827  0.4492624716527231
  0.5168049839666295  0.1343031459112325  0.4493517874115014
  0.8342346396252083  0.1054617423555371  0.5038064083361533
  0.8911672018550547  0.7372364792254729  0.5042918975924024
  0.2596629403248443  0.1629038738663766  0.5045283452152773
  0.8609163927005170  0.4824651425638180  0.5241932243509240
  0.5141522829176282  0.3873243707546550  0.5255743716594310
  0.6094811352444012  0.1351306900977391  0.5249326584486624
 
  0.00000000E+00  0.00000000E+00  0.00000000E+00
  0.00000000E+00  0.00000000E+00  0.00000000E+00
  0.00000000E+00  0.00000000E+00  0.00000000E+00
  0.00000000E+00  0.00000000E+00  0.00000000E+00
  0.00000000E+00  0.00000000E+00  0.00000000E+00
  0.00000000E+00  0.00000000E+00  0.00000000E+00
  0.00000000E+00  0.00000000E+00  0.00000000E+00
  0.00000000E+00  0.00000000E+00  0.00000000E+00
  0.00000000E+00  0.00000000E+00  0.00000000E+00
  0.00000000E+00  0.00000000E+00  0.00000000E+00
  0.00000000E+00  0.00000000E+00  0.00000000E+00
  0.00000000E+00  0.00000000E+00  0.00000000E+00
  0.00000000E+00  0.00000000E+00  0.00000000E+00
  0.00000000E+00  0.00000000E+00  0.00000000E+00
  0.00000000E+00  0.00000000E+00  0.00000000E+00
  0.00000000E+00  0.00000000E+00  0.00000000E+00
  0.00000000E+00  0.00000000E+00  0.00000000E+00
  0.00000000E+00  0.00000000E+00  0.00000000E+00
  0.00000000E+00  0.00000000E+00  0.00000000E+00
  0.00000000E+00  0.00000000E+00  0.00000000E+00
  0.00000000E+00  0.00000000E+00  0.00000000E+00
  0.00000000E+00  0.00000000E+00  0.00000000E+00
  0.00000000E+00  0.00000000E+00  0.00000000E+00
  0.00000000E+00  0.00000000E+00  0.00000000E+00
  0.00000000E+00  0.00000000E+00  0.00000000E+00
  0.00000000E+00  0.00000000E+00  0.00000000E+00
  0.00000000E+00  0.00000000E+00  0.00000000E+00
  0.00000000E+00  0.00000000E+00  0.00000000E+00
  0.00000000E+00  0.00000000E+00  0.00000000E+00
  0.00000000E+00  0.00000000E+00  0.00000000E+00
  0.00000000E+00  0.00000000E+00  0.00000000E+00
  0.00000000E+00  0.00000000E+00  0.00000000E+00
  0.00000000E+00  0.00000000E+00  0.00000000E+00
  0.00000000E+00  0.00000000E+00  0.00000000E+00
  0.00000000E+00  0.00000000E+00  0.00000000E+00
  0.00000000E+00  0.00000000E+00  0.00000000E+00
  0.00000000E+00  0.00000000E+00  0.00000000E+00
  0.00000000E+00  0.00000000E+00  0.00000000E+00
  0.00000000E+00  0.00000000E+00  0.00000000E+00
  0.00000000E+00  0.00000000E+00  0.00000000E+00
  0.00000000E+00  0.00000000E+00  0.00000000E+00
  0.00000000E+00  0.00000000E+00  0.00000000E+00
  0.00000000E+00  0.00000000E+00  0.00000000E+00
  0.00000000E+00  0.00000000E+00  0.00000000E+00
  0.00000000E+00  0.00000000E+00  0.00000000E+00
  0.00000000E+00  0.00000000E+00  0.00000000E+00
  0.00000000E+00  0.00000000E+00  0.00000000E+00
  0.00000000E+00  0.00000000E+00  0.00000000E+00
  0.00000000E+00  0.00000000E+00  0.00000000E+00
  0.00000000E+00  0.00000000E+00  0.00000000E+00
  0.00000000E+00  0.00000000E+00  0.00000000E+00
  0.00000000E+00  0.00000000E+00  0.00000000E+00
  0.00000000E+00  0.00000000E+00  0.00000000E+00
  0.00000000E+00  0.00000000E+00  0.00000000E+00
  0.00000000E+00  0.00000000E+00  0.00000000E+00
  0.00000000E+00  0.00000000E+00  0.00000000E+00
  0.00000000E+00  0.00000000E+00  0.00000000E+00
  0.00000000E+00  0.00000000E+00  0.00000000E+00
  0.00000000E+00  0.00000000E+00  0.00000000E+00
  0.00000000E+00  0.00000000E+00  0.00000000E+00
  0.00000000E+00  0.00000000E+00  0.00000000E+00
  0.00000000E+00  0.00000000E+00  0.00000000E+00
  0.00000000E+00  0.00000000E+00  0.00000000E+00
  0.00000000E+00  0.00000000E+00  0.00000000E+00
  0.00000000E+00  0.00000000E+00  0.00000000E+00
  0.00000000E+00  0.00000000E+00  0.00000000E+00
  0.00000000E+00  0.00000000E+00  0.00000000E+00
  0.00000000E+00  0.00000000E+00  0.00000000E+00
  0.00000000E+00  0.00000000E+00  0.00000000E+00
  0.00000000E+00  0.00000000E+00  0.00000000E+00
  0.00000000E+00  0.00000000E+00  0.00000000E+00
  0.00000000E+00  0.00000000E+00  0.00000000E+00
  0.00000000E+00  0.00000000E+00  0.00000000E+00
  0.00000000E+00  0.00000000E+00  0.00000000E+00
  0.00000000E+00  0.00000000E+00  0.00000000E+00
  0.00000000E+00  0.00000000E+00  0.00000000E+00
  0.00000000E+00  0.00000000E+00  0.00000000E+00
  0.00000000E+00  0.00000000E+00  0.00000000E+00
  0.00000000E+00  0.00000000E+00  0.00000000E+00
  0.00000000E+00  0.00000000E+00  0.00000000E+00
  0.00000000E+00  0.00000000E+00  0.00000000E+00
  0.00000000E+00  0.00000000E+00  0.00000000E+00
  0.00000000E+00  0.00000000E+00  0.00000000E+00
  0.00000000E+00  0.00000000E+00  0.00000000E+00
  0.00000000E+00  0.00000000E+00  0.00000000E+00
  0.00000000E+00  0.00000000E+00  0.00000000E+00
  0.00000000E+00  0.00000000E+00  0.00000000E+00
  0.00000000E+00  0.00000000E+00  0.00000000E+00
  0.00000000E+00  0.00000000E+00  0.00000000E+00
  0.00000000E+00  0.00000000E+00  0.00000000E+00
  0.00000000E+00  0.00000000E+00  0.00000000E+00
  0.00000000E+00  0.00000000E+00  0.00000000E+00
  0.00000000E+00  0.00000000E+00  0.00000000E+00
  0.00000000E+00  0.00000000E+00  0.00000000E+00
  0.00000000E+00  0.00000000E+00  0.00000000E+00
  0.00000000E+00  0.00000000E+00  0.00000000E+00
  0.00000000E+00  0.00000000E+00  0.00000000E+00
  0.00000000E+00  0.00000000E+00  0.00000000E+00
  0.00000000E+00  0.00000000E+00  0.00000000E+00
  0.00000000E+00  0.00000000E+00  0.00000000E+00
  0.00000000E+00  0.00000000E+00  0.00000000E+00
  0.00000000E+00  0.00000000E+00  0.00000000E+00
  0.00000000E+00  0.00000000E+00  0.00000000E+00
  0.00000000E+00  0.00000000E+00  0.00000000E+00
  0.00000000E+00  0.00000000E+00  0.00000000E+00
  0.00000000E+00  0.00000000E+00  0.00000000E+00
  0.00000000E+00  0.00000000E+00  0.00000000E+00
  0.00000000E+00  0.00000000E+00  0.00000000E+00
  0.00000000E+00  0.00000000E+00  0.00000000E+00
  0.00000000E+00  0.00000000E+00  0.00000000E+00
  0.00000000E+00  0.00000000E+00  0.00000000E+00
  0.00000000E+00  0.00000000E+00  0.00000000E+00
  0.00000000E+00  0.00000000E+00  0.00000000E+00
  0.00000000E+00  0.00000000E+00  0.00000000E+00
  0.00000000E+00  0.00000000E+00  0.00000000E+00
  0.00000000E+00  0.00000000E+00  0.00000000E+00
  0.00000000E+00  0.00000000E+00  0.00000000E+00
  0.00000000E+00  0.00000000E+00  0.00000000E+00
  0.00000000E+00  0.00000000E+00  0.00000000E+00
  0.00000000E+00  0.00000000E+00  0.00000000E+00
  0.00000000E+00  0.00000000E+00  0.00000000E+00
  0.00000000E+00  0.00000000E+00  0.00000000E+00
  0.00000000E+00  0.00000000E+00  0.00000000E+00
  0.00000000E+00  0.00000000E+00  0.00000000E+00
  0.00000000E+00  0.00000000E+00  0.00000000E+00
  0.00000000E+00  0.00000000E+00  0.00000000E+00
  0.00000000E+00  0.00000000E+00  0.00000000E+00
  0.00000000E+00  0.00000000E+00  0.00000000E+00
  0.00000000E+00  0.00000000E+00  0.00000000E+00
  0.00000000E+00  0.00000000E+00  0.00000000E+00
  0.00000000E+00  0.00000000E+00  0.00000000E+00
  0.00000000E+00  0.00000000E+00  0.00000000E+00
  0.00000000E+00  0.00000000E+00  0.00000000E+00
  0.00000000E+00  0.00000000E+00  0.00000000E+00
  0.00000000E+00  0.00000000E+00  0.00000000E+00
  0.00000000E+00  0.00000000E+00  0.00000000E+00
  0.00000000E+00  0.00000000E+00  0.00000000E+00
  0.00000000E+00  0.00000000E+00  0.00000000E+00
  0.00000000E+00  0.00000000E+00  0.00000000E+00
  0.00000000E+00  0.00000000E+00  0.00000000E+00
  0.00000000E+00  0.00000000E+00  0.00000000E+00
  0.00000000E+00  0.00000000E+00  0.00000000E+00
  0.00000000E+00  0.00000000E+00  0.00000000E+00
  0.00000000E+00  0.00000000E+00  0.00000000E+00
  0.00000000E+00  0.00000000E+00  0.00000000E+00
  0.00000000E+00  0.00000000E+00  0.00000000E+00
  0.00000000E+00  0.00000000E+00  0.00000000E+00
  0.00000000E+00  0.00000000E+00  0.00000000E+00
  0.00000000E+00  0.00000000E+00  0.00000000E+00
  0.00000000E+00  0.00000000E+00  0.00000000E+00
  0.00000000E+00  0.00000000E+00  0.00000000E+00
  0.00000000E+00  0.00000000E+00  0.00000000E+00
  0.00000000E+00  0.00000000E+00  0.00000000E+00
  0.00000000E+00  0.00000000E+00  0.00000000E+00
  0.00000000E+00  0.00000000E+00  0.00000000E+00
  0.00000000E+00  0.00000000E+00  0.00000000E+00
  0.00000000E+00  0.00000000E+00  0.00000000E+00
  0.00000000E+00  0.00000000E+00  0.00000000E+00
  0.00000000E+00  0.00000000E+00  0.00000000E+00
  0.00000000E+00  0.00000000E+00  0.00000000E+00
  0.00000000E+00  0.00000000E+00  0.00000000E+00
  0.00000000E+00  0.00000000E+00  0.00000000E+00
  0.00000000E+00  0.00000000E+00  0.00000000E+00
  0.00000000E+00  0.00000000E+00  0.00000000E+00
  0.00000000E+00  0.00000000E+00  0.00000000E+00
  0.00000000E+00  0.00000000E+00  0.00000000E+00
  0.00000000E+00  0.00000000E+00  0.00000000E+00
  0.00000000E+00  0.00000000E+00  0.00000000E+00
  0.00000000E+00  0.00000000E+00  0.00000000E+00
  0.00000000E+00  0.00000000E+00  0.00000000E+00
  0.00000000E+00  0.00000000E+00  0.00000000E+00
  0.00000000E+00  0.00000000E+00  0.00000000E+00
  0.00000000E+00  0.00000000E+00  0.00000000E+00
  0.00000000E+00  0.00000000E+00  0.00000000E+00
  0.00000000E+00  0.00000000E+00  0.00000000E+00
  0.00000000E+00  0.00000000E+00  0.00000000E+00
  0.00000000E+00  0.00000000E+00  0.00000000E+00
  0.00000000E+00  0.00000000E+00  0.00000000E+00
  0.00000000E+00  0.00000000E+00  0.00000000E+00
  0.00000000E+00  0.00000000E+00  0.00000000E+00
