Primitive Cell                          
   1.00000000000000     
    22.3984928097929306    0.0240598283564188    0.0000000000000000
   -11.1781737636391494   19.3822707719485336    0.0000000000000000
     0.0000000000000000    0.0000000000000000   20.0000000000000000
   C    N    O    H 
    48     3     6    27
Direct
  0.2021518330212828  0.5972320514086249  0.5070554713807454
  0.1609489176370289  0.5887627417809327  0.5631318545009805
  0.0893625536615446  0.5541879541238544  0.5604106945544345
  0.0553591662246546  0.5253576754402687  0.5000677770781436
  0.0955968951333972  0.5343538552033422  0.4429946114986478
  0.1673356210647654  0.5695475787470556  0.4466643118206477
  0.2786551017383658  0.6354763892853654  0.5102777981247826
  0.3152457134703894  0.5998787279388296  0.5085578440319622
  0.3867934502260510  0.6353335205379835  0.5166902871122545
  0.4220093003797700  0.7071489415769108  0.5242905209262432
  0.3861303526289106  0.7434355243797768  0.5235700678737203
  0.3143702855239425  0.7072862388674395  0.5168772173653977
  0.4240784823353323  0.8201084201111470  0.5260096491330728
  0.4541924333280036  0.8593721576566296  0.5837771054725067
  0.4250595941261821  0.5969355266152476  0.5164044781684893
  0.4584534252125323  0.5899918868367493  0.5728196238180843
  0.4334491843298451  0.8570723681670387  0.4665064292843866
  0.4311642981303976  0.5670293088087632  0.4569553807681501
  0.4912554620831528  0.9312057233965803  0.5831861269570524
  0.4993546548051029  0.9672373686439713  0.5235410416641102
  0.5378846510682607  0.0434744430871561  0.5221326642080655
  0.5252962492628157  0.0821170699417308  0.5696668984757451
  0.5607453638827735  0.1539142952062065  0.5671799335219134
  0.4953706107909639  0.5550988691363443  0.5710826839716674
  0.4999369013876702  0.5245667299643273  0.5116188807302962
  0.5376364945338423  0.4859775368882424  0.5099749454317077
  0.5267948738429524  0.4372895874522769  0.5597864928977216
  0.5619895859451418  0.4006655419949325  0.5583105270825328
  0.4700978121468538  0.9288399709844839  0.4650096862862867
  0.5878538885826501  0.0789493564032782  0.4727185633888169
  0.4676476113420307  0.5316679125419270  0.4543312331474283
  0.5852463696614478  0.4972143790712451  0.4589816678501322
  0.7570909228650322  0.3739028320745916  0.4999995857585162
  0.7202251705426761  0.4093904675750792  0.4983896846996743
  0.6485236491224882  0.3743583238406387  0.5072074912949276
  0.6135472672098601  0.3025861122849776  0.5159703307197461
  0.6489459617813154  0.2656471595879069  0.5144252286287170
  0.7207830445794983  0.3019783997833443  0.5071819038662682
  0.6110757145475887  0.1894178473765535  0.5180693875419351
  0.6103405561870758  0.4125427457347044  0.5078661135372471
  0.9791930083019196  0.4860513211838580  0.4980716040842950
  0.9424029440629482  0.4353418778595710  0.5465477100945222
  0.8707483018703002  0.3983571343200438  0.5459114743201781
  0.8333212672913746  0.4118604910019599  0.4977341615140602
  0.6243672486125291  0.1506960605472614  0.4712119490191355
  0.6215571080328459  0.4616528061505463  0.4583925089217118
  0.8701040578768939  0.4626743632550543  0.4493593596645127
  0.9419164488430170  0.4986180861305129  0.4490060494055825
  0.1926320310385847  0.6153938501274112  0.6293890940295199
  0.4468249473653145  0.8254273957368099  0.6492592322128914
  0.4543046218854485  0.6184592392840216  0.6384238688944848
  0.1693007940148163  0.6460868838143838  0.6624839917285925
  0.2387336432860607  0.6038922203526198  0.6474382402003016
  0.3915823948712500  0.7724209450785366  0.6610070434019022
  0.3985499086702120  0.6132562908211483  0.6542628395275756
  0.4965095779300270  0.8534371573561614  0.6881814445383370
  0.5071709929636654  0.6444449301377588  0.6733798335409489
  0.0604901434204521  0.5504382619560957  0.6055932477199093
  0.0702017404476436  0.5123229947288834  0.3954615305212883
  0.1977579194522292  0.5761136754913778  0.4018231123801215
  0.2860863239182834  0.7352854897886090  0.5180718482586784
  0.2874499908764747  0.5437993576241880  0.5045155957238094
  0.4113203261697365  0.8280707462594208  0.4205673870720190
  0.4066859362408408  0.5722985109753367  0.4119151531711935
  0.4779210467311401  0.7350441321161654  0.5300494644066447
  0.5575457048806101  0.2747359832462877  0.5208132426804468
  0.4863799303530740  0.0554069051554436  0.6082074691436077
  0.5500170164782503  0.1830864502613068  0.6042978234697358
  0.5144324127096596  0.9584212702713657  0.6296143184002005
  0.4896236516305947  0.4274887035865547  0.5995405172046659
  0.5529256030536089  0.3630707732073546  0.5974489533506073
  0.5210129620111061  0.5526914115705637  0.6164582430820502
  0.4753913689876441  0.9558039290118145  0.4179999373093892
  0.4703562404029711  0.5081750039179695  0.4074529377742948
  0.7489453942947577  0.2738163690615849  0.5074211051455819
  0.7481111454883234  0.4654902234747667  0.4939797067271101
  0.9705181887938181  0.4244621954259955  0.5847075909785460
  0.8430242053987840  0.3593967384841363  0.5841621545461848
  0.6629911234634207  0.1774545912325536  0.4324565591274734
  0.5988325067008944  0.0498258834932770  0.4357539536694404
  0.6585798698809313  0.4712492358387337  0.4185498700864301
  0.5947761709712509  0.5352475063299522  0.4201633209042299
  0.8419575633931657  0.4736238373968717  0.4112826982110889
  0.9695962925895003  0.5381177264792285  0.4111695584385657
 
  0.00000000E+00  0.00000000E+00  0.00000000E+00
  0.00000000E+00  0.00000000E+00  0.00000000E+00
  0.00000000E+00  0.00000000E+00  0.00000000E+00
  0.00000000E+00  0.00000000E+00  0.00000000E+00
  0.00000000E+00  0.00000000E+00  0.00000000E+00
  0.00000000E+00  0.00000000E+00  0.00000000E+00
  0.00000000E+00  0.00000000E+00  0.00000000E+00
  0.00000000E+00  0.00000000E+00  0.00000000E+00
  0.00000000E+00  0.00000000E+00  0.00000000E+00
  0.00000000E+00  0.00000000E+00  0.00000000E+00
  0.00000000E+00  0.00000000E+00  0.00000000E+00
  0.00000000E+00  0.00000000E+00  0.00000000E+00
  0.00000000E+00  0.00000000E+00  0.00000000E+00
  0.00000000E+00  0.00000000E+00  0.00000000E+00
  0.00000000E+00  0.00000000E+00  0.00000000E+00
  0.00000000E+00  0.00000000E+00  0.00000000E+00
  0.00000000E+00  0.00000000E+00  0.00000000E+00
  0.00000000E+00  0.00000000E+00  0.00000000E+00
  0.00000000E+00  0.00000000E+00  0.00000000E+00
  0.00000000E+00  0.00000000E+00  0.00000000E+00
  0.00000000E+00  0.00000000E+00  0.00000000E+00
  0.00000000E+00  0.00000000E+00  0.00000000E+00
  0.00000000E+00  0.00000000E+00  0.00000000E+00
  0.00000000E+00  0.00000000E+00  0.00000000E+00
  0.00000000E+00  0.00000000E+00  0.00000000E+00
  0.00000000E+00  0.00000000E+00  0.00000000E+00
  0.00000000E+00  0.00000000E+00  0.00000000E+00
  0.00000000E+00  0.00000000E+00  0.00000000E+00
  0.00000000E+00  0.00000000E+00  0.00000000E+00
  0.00000000E+00  0.00000000E+00  0.00000000E+00
  0.00000000E+00  0.00000000E+00  0.00000000E+00
  0.00000000E+00  0.00000000E+00  0.00000000E+00
  0.00000000E+00  0.00000000E+00  0.00000000E+00
  0.00000000E+00  0.00000000E+00  0.00000000E+00
  0.00000000E+00  0.00000000E+00  0.00000000E+00
  0.00000000E+00  0.00000000E+00  0.00000000E+00
  0.00000000E+00  0.00000000E+00  0.00000000E+00
  0.00000000E+00  0.00000000E+00  0.00000000E+00
  0.00000000E+00  0.00000000E+00  0.00000000E+00
  0.00000000E+00  0.00000000E+00  0.00000000E+00
  0.00000000E+00  0.00000000E+00  0.00000000E+00
  0.00000000E+00  0.00000000E+00  0.00000000E+00
  0.00000000E+00  0.00000000E+00  0.00000000E+00
  0.00000000E+00  0.00000000E+00  0.00000000E+00
  0.00000000E+00  0.00000000E+00  0.00000000E+00
  0.00000000E+00  0.00000000E+00  0.00000000E+00
  0.00000000E+00  0.00000000E+00  0.00000000E+00
  0.00000000E+00  0.00000000E+00  0.00000000E+00
  0.00000000E+00  0.00000000E+00  0.00000000E+00
  0.00000000E+00  0.00000000E+00  0.00000000E+00
  0.00000000E+00  0.00000000E+00  0.00000000E+00
  0.00000000E+00  0.00000000E+00  0.00000000E+00
  0.00000000E+00  0.00000000E+00  0.00000000E+00
  0.00000000E+00  0.00000000E+00  0.00000000E+00
  0.00000000E+00  0.00000000E+00  0.00000000E+00
  0.00000000E+00  0.00000000E+00  0.00000000E+00
  0.00000000E+00  0.00000000E+00  0.00000000E+00
  0.00000000E+00  0.00000000E+00  0.00000000E+00
  0.00000000E+00  0.00000000E+00  0.00000000E+00
  0.00000000E+00  0.00000000E+00  0.00000000E+00
  0.00000000E+00  0.00000000E+00  0.00000000E+00
  0.00000000E+00  0.00000000E+00  0.00000000E+00
  0.00000000E+00  0.00000000E+00  0.00000000E+00
  0.00000000E+00  0.00000000E+00  0.00000000E+00
  0.00000000E+00  0.00000000E+00  0.00000000E+00
  0.00000000E+00  0.00000000E+00  0.00000000E+00
  0.00000000E+00  0.00000000E+00  0.00000000E+00
  0.00000000E+00  0.00000000E+00  0.00000000E+00
  0.00000000E+00  0.00000000E+00  0.00000000E+00
  0.00000000E+00  0.00000000E+00  0.00000000E+00
  0.00000000E+00  0.00000000E+00  0.00000000E+00
  0.00000000E+00  0.00000000E+00  0.00000000E+00
  0.00000000E+00  0.00000000E+00  0.00000000E+00
  0.00000000E+00  0.00000000E+00  0.00000000E+00
  0.00000000E+00  0.00000000E+00  0.00000000E+00
  0.00000000E+00  0.00000000E+00  0.00000000E+00
  0.00000000E+00  0.00000000E+00  0.00000000E+00
  0.00000000E+00  0.00000000E+00  0.00000000E+00
  0.00000000E+00  0.00000000E+00  0.00000000E+00
  0.00000000E+00  0.00000000E+00  0.00000000E+00
  0.00000000E+00  0.00000000E+00  0.00000000E+00
  0.00000000E+00  0.00000000E+00  0.00000000E+00
  0.00000000E+00  0.00000000E+00  0.00000000E+00
  0.00000000E+00  0.00000000E+00  0.00000000E+00
