Primitive Cell                          
   1.00000000000000     
    29.4917291434934050    0.1293810669783720    0.0000000000000000
   -14.6342457136011479   25.3813697824186519    0.0000000000000000
     0.0000000000000000    0.0000000000000000   20.0000000000000000
   C    H    N    O 
    48    36    18     6
Direct
  0.3688612304239456  0.6527866194272889  0.4824290746322362
  0.2841327116079313  0.6242990441708329  0.5063866721195964
  0.3493432809890820  0.7666500543035539  0.4848394259835018
  0.4124912714413540  0.6407770060346039  0.4682167646836604
  0.6282754703273881  0.3385165952061868  0.5127323537122592
  0.7149399658034739  0.3687604039970367  0.5235657052926115
  0.6488735893782405  0.2251396064447420  0.5134935835207912
  0.5826814650303476  0.3487285082714351  0.5052985703685380
  0.5127368120910987  0.0254583577264924  0.4837593248350558
  0.5661447578203465  0.0516133272131185  0.4997789714245116
  0.5958899244664195  0.1059012388591896  0.5071215219260310
  0.4828705771775574  0.9673966578202737  0.4778348989900252
  0.4254357288366037  0.8565886152304145  0.4710557399429049
  0.4706881203036843  0.8847351252242461  0.4326978008621936
  0.4994894733452355  0.9398575171712267  0.4346472299368855
  0.9703933710934152  0.4781808480807967  0.5202660213999835
  0.9428476594434443  0.5047039412617877  0.5348825594171771
  0.8886416470479404  0.4798931028133140  0.5378258949177521
  0.0282025228313572  0.5074136834501815  0.5166358082986378
  0.1384259875330542  0.5635837117546387  0.5131573478477449
  0.1096217147655949  0.5803055651355749  0.4748779960481571
  0.0548791979000853  0.5525911015828981  0.4749576890951062
  0.5189599539760437  0.4866359149103445  0.4937197620109046
  0.4930318857022442  0.4320406198935274  0.4829848007268041
  0.5171292096219275  0.4017234115448503  0.4888093814138585
  0.4889638320715548  0.5147908706037967  0.4901592154523300
  0.4300010159286600  0.5669456955354306  0.4885640526065131
  0.4754729474594868  0.5862179302275905  0.4501934710180393
  0.5043814521188779  0.5600210918066111  0.4499198203175325
  0.3387404067951962  0.7102645085844586  0.4839329597746840
  0.2296125068072286  0.5796785790241472  0.5228999870157622
  0.6589458776678114  0.2813551744533314  0.5151432209272571
  0.7705412421712055  0.4143936086437350  0.5292874068708855
  0.5709757777245770  0.1358019737278013  0.4983021850808242
  0.5177317651221713  0.1110033105863053  0.4823560041604296
  0.4880979349889927  0.0563427328959420  0.4745894694432735
  0.4372004325083125  0.9378290583564635  0.5154770314305068
  0.4078495317064039  0.8833029261388390  0.5125544656815535
  0.8601836244681209  0.4254764139154616  0.5259144692670716
  0.8863870995046526  0.3976123644314526  0.5121838716290554
  0.9410408269315127  0.4229386567769851  0.5089018955557663
  0.0583723886588245  0.4918055235068621  0.5544028638626983
  0.1127302413311213  0.5183989660229642  0.5531453809579858
  0.5703804751288573  0.4272826948405637  0.5059513875008435
  0.5974059928744069  0.4815939415159463  0.5173784950788445
  0.5727218557641152  0.5119309897581203  0.5124583341215398
  0.4423170037524926  0.4958120387150444  0.5267744314122211
  0.4127810449357341  0.5207750972119740  0.5264496828254366
  0.5849198106972366  0.0279685910680598  0.5075661142041312
  0.6370950038778105  0.1250619262858024  0.5197320432528585
  0.4836396943346202  0.8634533353164429  0.4001384940433823
  0.5577852982522344  0.0053927767669322  0.3887952982881231
  0.5468666253009502  0.9472842685843403  0.3553296292295229
  0.4213433590466877  0.7841077042375062  0.4546773487586790
  0.9653038568064076  0.5468479085810358  0.5446629069925777
  0.8684536459278149  0.5015056675461835  0.5489716382943897
  0.1302108592141593  0.6152339476094895  0.4434446008844048
  0.9896159172141665  0.5443273105976516  0.4270401287811367
  0.0472759240271472  0.5932178038978435  0.3961906314871584
  0.2086275541977471  0.6322305328868509  0.4940351756849850
  0.4518986005891179  0.4127896151534358  0.4687956637370974
  0.4960491297376564  0.3596427403133262  0.4798474307432272
  0.4880207035251658  0.6215323065045766  0.4203351772081874
  0.5590402946139506  0.5528990169434493  0.3948652314911527
  0.5522714531910609  0.6051435238968637  0.3742366448942960
  0.3636348923837502  0.5717115180963290  0.5117145383052630
  0.4246894256876885  0.9587855036995734  0.5491262972992033
  0.3725849841742956  0.8616558545914188  0.5420972661623011
  0.4988904187565169  0.1347651117964048  0.4755597710708699
  0.4228278179212523  0.0565367271364607  0.4390710750940698
  0.4176835790244340  0.9959236667757807  0.4421382109302314
  0.5749400692324826  0.2087177672370473  0.5009911050584179
  0.0380552007751405  0.4575845304449899  0.5868898950899037
  0.1349870688152279  0.5052379514657517  0.5826953997927689
  0.8637634764186757  0.3552860612701139  0.5031236102288545
  0.9437380371520803  0.3586516418934167  0.4732063247053091
  0.0031328706863007  0.4140426760381288  0.4805761376048210
  0.7880627987501612  0.3566675629736551  0.5224524765381631
  0.4299461931415252  0.4609252273351530  0.5576869284941068
  0.3772643158346725  0.5055977841350341  0.5563498418128816
  0.6386411862559740  0.5008549524168799  0.5314529308223115
  0.6388788578929905  0.5802139946772087  0.5353799147694644
  0.5901398878468456  0.5887157742839548  0.5047741528213692
  0.6383690003090194  0.4234625550859619  0.5199881221843867
  0.3792146335269990  0.7022283277546180  0.4730921660879304
  0.2898771758520340  0.6722736697145848  0.4963759654904720
  0.3227337872760643  0.6129201387305230  0.5030350560014654
  0.6174641332642139  0.2885839941518142  0.5099868676783572
  0.7083692783987203  0.3199435522058209  0.5209813320070751
  0.6763995478648681  0.3801975104182773  0.5205400232925754
  0.5440924461124084  0.9664297760370886  0.3959152451482808
  0.4000026904822462  0.8014537736871858  0.4682554987449734
  0.0278734651071275  0.5701252206570473  0.4356919841601652
  0.1930033975488996  0.5941958539258607  0.5098990340593943
  0.5497250373158522  0.5801470611860822  0.4110784104410712
  0.3998990016144219  0.5917885130627454  0.4904778066787969
  0.4353914244740693  0.0332691012074591  0.4598671244810930
  0.5968724848777498  0.1905387321069796  0.5047321839329655
  0.9654448999351999  0.3938134874871011  0.4960633767654059
  0.8055843206969797  0.3966959232475276  0.5267408651425853
  0.5997248880412727  0.5646004169217207  0.5302641684745808
  0.5990853525214703  0.4011041617955158  0.5114366878743581
  0.2219972889286197  0.5369448280038469  0.5438244827282190
  0.4530608584354567  0.6727981068286439  0.4398481497288387
  0.3152739466424137  0.7771904655706336  0.5008827845116031
  0.7800517500834232  0.4602097503052889  0.5343824917337301
  0.5379422370563773  0.3127659514702188  0.4946598586060773
  0.6844973369519352  0.2149281211719725  0.5192186637321115
 
  0.00000000E+00  0.00000000E+00  0.00000000E+00
  0.00000000E+00  0.00000000E+00  0.00000000E+00
  0.00000000E+00  0.00000000E+00  0.00000000E+00
  0.00000000E+00  0.00000000E+00  0.00000000E+00
  0.00000000E+00  0.00000000E+00  0.00000000E+00
  0.00000000E+00  0.00000000E+00  0.00000000E+00
  0.00000000E+00  0.00000000E+00  0.00000000E+00
  0.00000000E+00  0.00000000E+00  0.00000000E+00
  0.00000000E+00  0.00000000E+00  0.00000000E+00
  0.00000000E+00  0.00000000E+00  0.00000000E+00
  0.00000000E+00  0.00000000E+00  0.00000000E+00
  0.00000000E+00  0.00000000E+00  0.00000000E+00
  0.00000000E+00  0.00000000E+00  0.00000000E+00
  0.00000000E+00  0.00000000E+00  0.00000000E+00
  0.00000000E+00  0.00000000E+00  0.00000000E+00
  0.00000000E+00  0.00000000E+00  0.00000000E+00
  0.00000000E+00  0.00000000E+00  0.00000000E+00
  0.00000000E+00  0.00000000E+00  0.00000000E+00
  0.00000000E+00  0.00000000E+00  0.00000000E+00
  0.00000000E+00  0.00000000E+00  0.00000000E+00
  0.00000000E+00  0.00000000E+00  0.00000000E+00
  0.00000000E+00  0.00000000E+00  0.00000000E+00
  0.00000000E+00  0.00000000E+00  0.00000000E+00
  0.00000000E+00  0.00000000E+00  0.00000000E+00
  0.00000000E+00  0.00000000E+00  0.00000000E+00
  0.00000000E+00  0.00000000E+00  0.00000000E+00
  0.00000000E+00  0.00000000E+00  0.00000000E+00
  0.00000000E+00  0.00000000E+00  0.00000000E+00
  0.00000000E+00  0.00000000E+00  0.00000000E+00
  0.00000000E+00  0.00000000E+00  0.00000000E+00
  0.00000000E+00  0.00000000E+00  0.00000000E+00
  0.00000000E+00  0.00000000E+00  0.00000000E+00
  0.00000000E+00  0.00000000E+00  0.00000000E+00
  0.00000000E+00  0.00000000E+00  0.00000000E+00
  0.00000000E+00  0.00000000E+00  0.00000000E+00
  0.00000000E+00  0.00000000E+00  0.00000000E+00
  0.00000000E+00  0.00000000E+00  0.00000000E+00
  0.00000000E+00  0.00000000E+00  0.00000000E+00
  0.00000000E+00  0.00000000E+00  0.00000000E+00
  0.00000000E+00  0.00000000E+00  0.00000000E+00
  0.00000000E+00  0.00000000E+00  0.00000000E+00
  0.00000000E+00  0.00000000E+00  0.00000000E+00
  0.00000000E+00  0.00000000E+00  0.00000000E+00
  0.00000000E+00  0.00000000E+00  0.00000000E+00
  0.00000000E+00  0.00000000E+00  0.00000000E+00
  0.00000000E+00  0.00000000E+00  0.00000000E+00
  0.00000000E+00  0.00000000E+00  0.00000000E+00
  0.00000000E+00  0.00000000E+00  0.00000000E+00
  0.00000000E+00  0.00000000E+00  0.00000000E+00
  0.00000000E+00  0.00000000E+00  0.00000000E+00
  0.00000000E+00  0.00000000E+00  0.00000000E+00
  0.00000000E+00  0.00000000E+00  0.00000000E+00
  0.00000000E+00  0.00000000E+00  0.00000000E+00
  0.00000000E+00  0.00000000E+00  0.00000000E+00
  0.00000000E+00  0.00000000E+00  0.00000000E+00
  0.00000000E+00  0.00000000E+00  0.00000000E+00
  0.00000000E+00  0.00000000E+00  0.00000000E+00
  0.00000000E+00  0.00000000E+00  0.00000000E+00
  0.00000000E+00  0.00000000E+00  0.00000000E+00
  0.00000000E+00  0.00000000E+00  0.00000000E+00
  0.00000000E+00  0.00000000E+00  0.00000000E+00
  0.00000000E+00  0.00000000E+00  0.00000000E+00
  0.00000000E+00  0.00000000E+00  0.00000000E+00
  0.00000000E+00  0.00000000E+00  0.00000000E+00
  0.00000000E+00  0.00000000E+00  0.00000000E+00
  0.00000000E+00  0.00000000E+00  0.00000000E+00
  0.00000000E+00  0.00000000E+00  0.00000000E+00
  0.00000000E+00  0.00000000E+00  0.00000000E+00
  0.00000000E+00  0.00000000E+00  0.00000000E+00
  0.00000000E+00  0.00000000E+00  0.00000000E+00
  0.00000000E+00  0.00000000E+00  0.00000000E+00
  0.00000000E+00  0.00000000E+00  0.00000000E+00
  0.00000000E+00  0.00000000E+00  0.00000000E+00
  0.00000000E+00  0.00000000E+00  0.00000000E+00
  0.00000000E+00  0.00000000E+00  0.00000000E+00
  0.00000000E+00  0.00000000E+00  0.00000000E+00
  0.00000000E+00  0.00000000E+00  0.00000000E+00
  0.00000000E+00  0.00000000E+00  0.00000000E+00
  0.00000000E+00  0.00000000E+00  0.00000000E+00
  0.00000000E+00  0.00000000E+00  0.00000000E+00
  0.00000000E+00  0.00000000E+00  0.00000000E+00
  0.00000000E+00  0.00000000E+00  0.00000000E+00
  0.00000000E+00  0.00000000E+00  0.00000000E+00
  0.00000000E+00  0.00000000E+00  0.00000000E+00
  0.00000000E+00  0.00000000E+00  0.00000000E+00
  0.00000000E+00  0.00000000E+00  0.00000000E+00
  0.00000000E+00  0.00000000E+00  0.00000000E+00
  0.00000000E+00  0.00000000E+00  0.00000000E+00
  0.00000000E+00  0.00000000E+00  0.00000000E+00
  0.00000000E+00  0.00000000E+00  0.00000000E+00
  0.00000000E+00  0.00000000E+00  0.00000000E+00
  0.00000000E+00  0.00000000E+00  0.00000000E+00
  0.00000000E+00  0.00000000E+00  0.00000000E+00
  0.00000000E+00  0.00000000E+00  0.00000000E+00
  0.00000000E+00  0.00000000E+00  0.00000000E+00
  0.00000000E+00  0.00000000E+00  0.00000000E+00
  0.00000000E+00  0.00000000E+00  0.00000000E+00
  0.00000000E+00  0.00000000E+00  0.00000000E+00
  0.00000000E+00  0.00000000E+00  0.00000000E+00
  0.00000000E+00  0.00000000E+00  0.00000000E+00
  0.00000000E+00  0.00000000E+00  0.00000000E+00
  0.00000000E+00  0.00000000E+00  0.00000000E+00
  0.00000000E+00  0.00000000E+00  0.00000000E+00
  0.00000000E+00  0.00000000E+00  0.00000000E+00
  0.00000000E+00  0.00000000E+00  0.00000000E+00
  0.00000000E+00  0.00000000E+00  0.00000000E+00
  0.00000000E+00  0.00000000E+00  0.00000000E+00
  0.00000000E+00  0.00000000E+00  0.00000000E+00
