Primitive Cell                          
   1.00000000000000     
    21.8589297384628196   -0.0248804480768720    0.0000000000000000
   -10.9508121414602044   18.8488514231426549    0.0000000000000000
     0.0000000000000000    0.0000000000000000   20.0000000000000000
   O    C    H    N 
    12    30    12    18
Direct
  0.4559902248733536  0.3253832167255482  0.5657383982762241
  0.3639040635332265  0.3368696206110826  0.5419044507139006
  0.4189056434830150  0.0910960089456196  0.5056668329558320
  0.5043396417733845  0.1450270272933452  0.4312645274049984
  0.7072679424990014  0.1235474761157747  0.5599731550115052
  0.6944837696560455  0.0199495287068459  0.5323535487937647
  0.7098582680288601  0.6132980614001937  0.4956486924442913
  0.6747299034867140  0.5226645431794736  0.4266298761613143
  0.9086279449376846  0.5786927500523049  0.5489495583276707
  0.0146773644764195  0.6689279991592088  0.5269360546083135
  0.9402844807316342  0.3190114140116478  0.5057466804955553
  0.8844627313250015  0.3493407466896841  0.4327211865406468
  0.2885481363820475  0.6500568265291875  0.5183914402598333
  0.0693607984649489  0.5815364206192797  0.5163277781318811
  0.0956800599292720  0.5353953239461404  0.5056929966738437
  0.0478714577372159  0.4629766884948978  0.4954265965685352
  0.1718700999513132  0.5618462355106928  0.5049592637101625
  0.4011219329696445  0.7424654514692079  0.5194096232927805
  0.3803905058810457  0.6297392950495890  0.5195615397376869
  0.5518108522365637  0.9627642205587676  0.5197538120274103
  0.5479766392495051  0.4562845177334012  0.5104835201508848
  0.4767169349779152  0.4341457630087859  0.5248207348153713
  0.4492839232102384  0.4791966633364595  0.5225896957805176
  0.4795408926528637  0.9356553278712383  0.5069129067815865
  0.4549515446394352  0.9830242184573876  0.4954017764535124
  0.5023424826941607  0.0557163051706837  0.4961144711069423
  0.4300159664234258  0.8591111179765889  0.5051952042146866
  0.4939975220504138  0.5510042266578239  0.5063710765341725
  0.4670289253908209  0.6002546530670827  0.5037690393302796
  0.6500094595618009  0.2738811237367997  0.5469528963095058
  0.6625516593899619  0.3829574001223648  0.5466787912743527
  0.5747259287504249  0.0850136048185348  0.5100759483982529
  0.5970818015189749  0.0355680865151484  0.5216451992995204
  0.6230457378505321  0.1628106046466868  0.5123812759504034
  0.5774724300763125  0.4083091336919864  0.5132051558041226
  0.5653939972117428  0.5753466331195227  0.4919682183353089
  0.5905706930419115  0.5281444166129390  0.4932254785170329
  0.7589173541781733  0.3708211977845934  0.5467854425837189
  0.9470182809702763  0.4822642884694801  0.5070040882528986
  0.9968451873408242  0.5545271303467203  0.5173117219428036
  0.8693964828871685  0.4528355044587400  0.5089839525212057
  0.9755436820600139  0.4381966323958935  0.4951364059418069
  0.1056728401039777  0.6379492114735896  0.5244805024282115
  0.0664768708999475  0.4256032014029500  0.4871847572958004
  0.1893085830768939  0.5236784142278950  0.4927712897418743
  0.5718413245592515  0.9267891022532382  0.5289406054234149
  0.3936750578356722  0.4592795514593533  0.5339624391507982
  0.5507456168691718  0.3583417065075878  0.4847528311543243
  0.3991112752594077  0.9637372270372282  0.4854057861178163
  0.3748314727140922  0.8410633677459884  0.4906830332352285
  0.5034972918251484  0.6546439616560065  0.4859926592325010
  0.6720209529264665  0.1859731739893249  0.4826320428579933
  0.6016268074308897  0.6308303692102868  0.4793033990304423
  0.8462758897159190  0.4762803673192124  0.4760689205043747
  0.3314637431235496  0.7206378455233988  0.5194261850716586
  0.3100193564255136  0.6019556432398403  0.5189643962958144
  0.2161110393838754  0.6274166697657151  0.5183344683180167
  0.4286146320979682  0.6996704683000914  0.5201109887436459
  0.4030492734970395  0.5800680295910183  0.5216016686292946
  0.4509356604450119  0.8151828508996246  0.5203405539332309
  0.4282243174025240  0.3595443691666347  0.5456556670924755
  0.4733770990188262  0.1019874305461599  0.4767957740887780
  0.7202378978578778  0.2996605974978479  0.5476903105633113
  0.6178159186888408  0.3124864907200475  0.5474276495166492
  0.6346152851124529  0.4283513828018641  0.5462838633274743
  0.6044544178283857  0.2002825532615873  0.5467134913078127
  0.6722401980136326  0.0616534770477060  0.5392092945475540
  0.6648551910708989  0.5564908959860375  0.4707281715636213
  0.7335110705967978  0.4155472188303122  0.5471291809616687
  0.8322433955748068  0.3992165146490052  0.5466047971108807
  0.9715356893798059  0.6048272126881713  0.5321336886332091
  0.9287324827820811  0.3623402901349380  0.4771133458670604
 
  0.00000000E+00  0.00000000E+00  0.00000000E+00
  0.00000000E+00  0.00000000E+00  0.00000000E+00
  0.00000000E+00  0.00000000E+00  0.00000000E+00
  0.00000000E+00  0.00000000E+00  0.00000000E+00
  0.00000000E+00  0.00000000E+00  0.00000000E+00
  0.00000000E+00  0.00000000E+00  0.00000000E+00
  0.00000000E+00  0.00000000E+00  0.00000000E+00
  0.00000000E+00  0.00000000E+00  0.00000000E+00
  0.00000000E+00  0.00000000E+00  0.00000000E+00
  0.00000000E+00  0.00000000E+00  0.00000000E+00
  0.00000000E+00  0.00000000E+00  0.00000000E+00
  0.00000000E+00  0.00000000E+00  0.00000000E+00
  0.00000000E+00  0.00000000E+00  0.00000000E+00
  0.00000000E+00  0.00000000E+00  0.00000000E+00
  0.00000000E+00  0.00000000E+00  0.00000000E+00
  0.00000000E+00  0.00000000E+00  0.00000000E+00
  0.00000000E+00  0.00000000E+00  0.00000000E+00
  0.00000000E+00  0.00000000E+00  0.00000000E+00
  0.00000000E+00  0.00000000E+00  0.00000000E+00
  0.00000000E+00  0.00000000E+00  0.00000000E+00
  0.00000000E+00  0.00000000E+00  0.00000000E+00
  0.00000000E+00  0.00000000E+00  0.00000000E+00
  0.00000000E+00  0.00000000E+00  0.00000000E+00
  0.00000000E+00  0.00000000E+00  0.00000000E+00
  0.00000000E+00  0.00000000E+00  0.00000000E+00
  0.00000000E+00  0.00000000E+00  0.00000000E+00
  0.00000000E+00  0.00000000E+00  0.00000000E+00
  0.00000000E+00  0.00000000E+00  0.00000000E+00
  0.00000000E+00  0.00000000E+00  0.00000000E+00
  0.00000000E+00  0.00000000E+00  0.00000000E+00
  0.00000000E+00  0.00000000E+00  0.00000000E+00
  0.00000000E+00  0.00000000E+00  0.00000000E+00
  0.00000000E+00  0.00000000E+00  0.00000000E+00
  0.00000000E+00  0.00000000E+00  0.00000000E+00
  0.00000000E+00  0.00000000E+00  0.00000000E+00
  0.00000000E+00  0.00000000E+00  0.00000000E+00
  0.00000000E+00  0.00000000E+00  0.00000000E+00
  0.00000000E+00  0.00000000E+00  0.00000000E+00
  0.00000000E+00  0.00000000E+00  0.00000000E+00
  0.00000000E+00  0.00000000E+00  0.00000000E+00
  0.00000000E+00  0.00000000E+00  0.00000000E+00
  0.00000000E+00  0.00000000E+00  0.00000000E+00
  0.00000000E+00  0.00000000E+00  0.00000000E+00
  0.00000000E+00  0.00000000E+00  0.00000000E+00
  0.00000000E+00  0.00000000E+00  0.00000000E+00
  0.00000000E+00  0.00000000E+00  0.00000000E+00
  0.00000000E+00  0.00000000E+00  0.00000000E+00
  0.00000000E+00  0.00000000E+00  0.00000000E+00
  0.00000000E+00  0.00000000E+00  0.00000000E+00
  0.00000000E+00  0.00000000E+00  0.00000000E+00
  0.00000000E+00  0.00000000E+00  0.00000000E+00
  0.00000000E+00  0.00000000E+00  0.00000000E+00
  0.00000000E+00  0.00000000E+00  0.00000000E+00
  0.00000000E+00  0.00000000E+00  0.00000000E+00
  0.00000000E+00  0.00000000E+00  0.00000000E+00
  0.00000000E+00  0.00000000E+00  0.00000000E+00
  0.00000000E+00  0.00000000E+00  0.00000000E+00
  0.00000000E+00  0.00000000E+00  0.00000000E+00
  0.00000000E+00  0.00000000E+00  0.00000000E+00
  0.00000000E+00  0.00000000E+00  0.00000000E+00
  0.00000000E+00  0.00000000E+00  0.00000000E+00
  0.00000000E+00  0.00000000E+00  0.00000000E+00
  0.00000000E+00  0.00000000E+00  0.00000000E+00
  0.00000000E+00  0.00000000E+00  0.00000000E+00
  0.00000000E+00  0.00000000E+00  0.00000000E+00
  0.00000000E+00  0.00000000E+00  0.00000000E+00
  0.00000000E+00  0.00000000E+00  0.00000000E+00
  0.00000000E+00  0.00000000E+00  0.00000000E+00
  0.00000000E+00  0.00000000E+00  0.00000000E+00
  0.00000000E+00  0.00000000E+00  0.00000000E+00
  0.00000000E+00  0.00000000E+00  0.00000000E+00
  0.00000000E+00  0.00000000E+00  0.00000000E+00
