Primitive Cell                          
   1.00000000000000     
    21.7188072319971113   -0.0009937261289521    0.0000000000000000
   -10.8603830737045186   18.8238520023552631    0.0000000000000000
     0.0000000000000000    0.0000000000000000   20.0000000000000000
   O    C    H    N 
     6    30    21    15
Direct
  0.1810111479453838  0.6957675150025366  0.4479409930968359
  0.5134326922183234  0.8245878827427546  0.4497844662827930
  0.3098164867949507  0.4924301972771232  0.4470754332941311
  0.8216951130563217  0.3131610114994956  0.5253112542646505
  0.4901372308694150  0.1840078723045480  0.5255016797963989
  0.6923932979182581  0.5153300908765388  0.5251115107600768
  0.3456368419880036  0.6169225755188137  0.4512883876119389
  0.2699820921548408  0.6601897965356329  0.4512878682165038
  0.3584310948798617  0.5543446239623151  0.4533086410237814
  0.1945568867691492  0.6472584595757027  0.4536429753037865
  0.4513393740503844  0.8111432894138559  0.4547894651900890
  0.6566501081176739  0.3910820508694712  0.5319368056675131
  0.7331462046382740  0.3489178541292546  0.5318125118878143
  0.6432806251197860  0.4532482023733237  0.5263535190927868
  0.8087108434392150  0.3622732863498044  0.5263766071599960
  0.5522669395885274  0.1969960929714532  0.5262364081749809
  0.9650239516900498  0.4302397599595835  0.4940089278280340
  0.0372533573616067  0.4668925979068135  0.4774278854768141
  0.0741838800116241  0.5424632136218293  0.4751629024844490
  0.5752808269012561  0.5414977802839971  0.4941510462141991
  0.5386842466532116  0.5770963165672072  0.4774854446375727
  0.4630892631913071  0.5384250494565279  0.4748240028492532
  0.4637843229191390  0.0407579593916054  0.4938673586639339
  0.4281578287029362  0.9685285864273609  0.4774422573300896
  0.4668609920405373  0.9316131520830737  0.4751822058145905
  0.3888821499237025  0.7357714640536202  0.4521450737736714
  0.6144948154923853  0.2724886160520938  0.5316869877366202
  0.0371722193054111  0.5791241569320036  0.4866590490208864
  0.9653354444512914  0.5421955980904940  0.5021164653398387
  0.9289838700807280  0.4675207819382692  0.5063583140435739
  0.4263555865706508  0.4647020546766356  0.4856801952790164
  0.4632501333229868  0.4297646870052603  0.5011945281379724
  0.5379422883245013  0.4681526450339533  0.5061029846119283
  0.5405914041032318  0.9686012624253095  0.4863008321698246
  0.5755291777243130  0.0404289453630255  0.5015309370285763
  0.5371538785675085  0.0767612388650889  0.5059607014346525
  0.9360652593387471  0.3724830468118014  0.4965608308942251
  0.0429245309167285  0.3766141537376910  0.4662142009248456
  0.1109860489843726  0.4479872766758177  0.4301477696756706
  0.1719469299647898  0.5470673615276240  0.4679391524542780
  0.6330484427432310  0.5703114078735112  0.4970703997205845
  0.6289988544642782  0.6732028617448478  0.4670458726497060
  0.5577217601606108  0.6699188412992214  0.4305897384885355
  0.4585754830052196  0.6315792297972536  0.4685163813562099
  0.4349440314730657  0.0697044091454799  0.4965397353708028
  0.3320277328030059  0.9627787969473616  0.4666265229662656
  0.3351811530406366  0.8945032850365209  0.4306949261839748
  0.3737443799870022  0.8339251316710872  0.4681829439376060
  0.0660478012453609  0.6368033881539645  0.4837014865735867
  0.9369505249922128  0.5710244473688348  0.5110644644223257
  0.8329932335741148  0.4642106868162159  0.5234468945848931
  0.3686683564591178  0.4359078761835349  0.4822052541947386
  0.4343855327837147  0.3725149639373129  0.5097000512116239
  0.5412505946382495  0.3755961051560135  0.5234802863589962
  0.5693734012876845  0.9396823836670336  0.4832392759407824
  0.6327984345930915  0.0688425777393746  0.5102008336191801
  0.6298948248779936  0.1725990091911811  0.5228101588915379
  0.4030913939734972  0.6826830222464153  0.4519308485311058
  0.2783640444552162  0.6027792260367093  0.4506012589683905
  0.3230703325894311  0.7274239587668418  0.4517484400520786
  0.5996588987125264  0.3251895720508742  0.5321070530634415
  0.7241936905319122  0.4058846339845914  0.5323283615934287
  0.6804335970928292  0.2814069405131150  0.5318229630542248
  0.0738824194526799  0.4303038488651509  0.4670779374996670
  0.1473191047012321  0.5766448208519748  0.4636756564034599
  0.5752558573666349  0.6502849681729188  0.4674505513632212
  0.4289907255521257  0.5774605700571840  0.4635733555532013
  0.3549368489841740  0.9319686112438177  0.4672564938888257
  0.4279548126717216  0.8585152507112639  0.4639629228529074
  0.8562797086679055  0.4333208462675273  0.5205155444520884
  0.5721729163681957  0.4297339510850335  0.5205179960371424
  0.5757267206599579  0.1494218711285029  0.5200220663618964
 
  0.00000000E+00  0.00000000E+00  0.00000000E+00
  0.00000000E+00  0.00000000E+00  0.00000000E+00
  0.00000000E+00  0.00000000E+00  0.00000000E+00
  0.00000000E+00  0.00000000E+00  0.00000000E+00
  0.00000000E+00  0.00000000E+00  0.00000000E+00
  0.00000000E+00  0.00000000E+00  0.00000000E+00
  0.00000000E+00  0.00000000E+00  0.00000000E+00
  0.00000000E+00  0.00000000E+00  0.00000000E+00
  0.00000000E+00  0.00000000E+00  0.00000000E+00
  0.00000000E+00  0.00000000E+00  0.00000000E+00
  0.00000000E+00  0.00000000E+00  0.00000000E+00
  0.00000000E+00  0.00000000E+00  0.00000000E+00
  0.00000000E+00  0.00000000E+00  0.00000000E+00
  0.00000000E+00  0.00000000E+00  0.00000000E+00
  0.00000000E+00  0.00000000E+00  0.00000000E+00
  0.00000000E+00  0.00000000E+00  0.00000000E+00
  0.00000000E+00  0.00000000E+00  0.00000000E+00
  0.00000000E+00  0.00000000E+00  0.00000000E+00
  0.00000000E+00  0.00000000E+00  0.00000000E+00
  0.00000000E+00  0.00000000E+00  0.00000000E+00
  0.00000000E+00  0.00000000E+00  0.00000000E+00
  0.00000000E+00  0.00000000E+00  0.00000000E+00
  0.00000000E+00  0.00000000E+00  0.00000000E+00
  0.00000000E+00  0.00000000E+00  0.00000000E+00
  0.00000000E+00  0.00000000E+00  0.00000000E+00
  0.00000000E+00  0.00000000E+00  0.00000000E+00
  0.00000000E+00  0.00000000E+00  0.00000000E+00
  0.00000000E+00  0.00000000E+00  0.00000000E+00
  0.00000000E+00  0.00000000E+00  0.00000000E+00
  0.00000000E+00  0.00000000E+00  0.00000000E+00
  0.00000000E+00  0.00000000E+00  0.00000000E+00
  0.00000000E+00  0.00000000E+00  0.00000000E+00
  0.00000000E+00  0.00000000E+00  0.00000000E+00
  0.00000000E+00  0.00000000E+00  0.00000000E+00
  0.00000000E+00  0.00000000E+00  0.00000000E+00
  0.00000000E+00  0.00000000E+00  0.00000000E+00
  0.00000000E+00  0.00000000E+00  0.00000000E+00
  0.00000000E+00  0.00000000E+00  0.00000000E+00
  0.00000000E+00  0.00000000E+00  0.00000000E+00
  0.00000000E+00  0.00000000E+00  0.00000000E+00
  0.00000000E+00  0.00000000E+00  0.00000000E+00
  0.00000000E+00  0.00000000E+00  0.00000000E+00
  0.00000000E+00  0.00000000E+00  0.00000000E+00
  0.00000000E+00  0.00000000E+00  0.00000000E+00
  0.00000000E+00  0.00000000E+00  0.00000000E+00
  0.00000000E+00  0.00000000E+00  0.00000000E+00
  0.00000000E+00  0.00000000E+00  0.00000000E+00
  0.00000000E+00  0.00000000E+00  0.00000000E+00
  0.00000000E+00  0.00000000E+00  0.00000000E+00
  0.00000000E+00  0.00000000E+00  0.00000000E+00
  0.00000000E+00  0.00000000E+00  0.00000000E+00
  0.00000000E+00  0.00000000E+00  0.00000000E+00
  0.00000000E+00  0.00000000E+00  0.00000000E+00
  0.00000000E+00  0.00000000E+00  0.00000000E+00
  0.00000000E+00  0.00000000E+00  0.00000000E+00
  0.00000000E+00  0.00000000E+00  0.00000000E+00
  0.00000000E+00  0.00000000E+00  0.00000000E+00
  0.00000000E+00  0.00000000E+00  0.00000000E+00
  0.00000000E+00  0.00000000E+00  0.00000000E+00
  0.00000000E+00  0.00000000E+00  0.00000000E+00
  0.00000000E+00  0.00000000E+00  0.00000000E+00
  0.00000000E+00  0.00000000E+00  0.00000000E+00
  0.00000000E+00  0.00000000E+00  0.00000000E+00
  0.00000000E+00  0.00000000E+00  0.00000000E+00
  0.00000000E+00  0.00000000E+00  0.00000000E+00
  0.00000000E+00  0.00000000E+00  0.00000000E+00
  0.00000000E+00  0.00000000E+00  0.00000000E+00
  0.00000000E+00  0.00000000E+00  0.00000000E+00
  0.00000000E+00  0.00000000E+00  0.00000000E+00
  0.00000000E+00  0.00000000E+00  0.00000000E+00
  0.00000000E+00  0.00000000E+00  0.00000000E+00
  0.00000000E+00  0.00000000E+00  0.00000000E+00
