Primitive Cell                          
   1.00000000000000     
    52.8282076068570348   -0.0960968771489031    0.0000000000000000
    -0.0389015587623702   20.8098512229875787    0.0000000000000000
     0.0000000000000000    0.0000000000000000   20.0000000000000000
   C    N    H 
   108    72    36
Direct
  0.1727152111456647  0.3717504714595350  0.5231283288892215
  0.1600679991513942  0.2704067441390023  0.4988707033856059
  0.2020655052449740  0.2933648193780058  0.5082327460977680
  0.8330578455335740  0.6389243330135415  0.4844277171951816
  0.8457187084565518  0.7399959029338703  0.5101645129759973
  0.8037390721434008  0.7172524139272127  0.4999626133881918
  0.1720224964231178  0.6394670044345290  0.5271181799572133
  0.1595807904809448  0.7412507364225149  0.5074928910229062
  0.2015482277479634  0.7175507406458053  0.5119187058999302
  0.8336308526310532  0.3711141243723688  0.4807110128463279
  0.8460237703633027  0.2694325040910286  0.5015505411008760
  0.8040956635312924  0.2932488575090559  0.4964563671122519
  0.6720856375547228  0.8732479323076561  0.5278258433972667
  0.6594984436559272  0.7726351352257907  0.5004483487387645
  0.7013148144566017  0.7953876931139803  0.5113569594658145
  0.3337392080628163  0.1384619930128466  0.4789404263639909
  0.3462700699396066  0.2391823002750755  0.5061779733412806
  0.3045086187880770  0.2164313097670743  0.4943047361225439
  0.6717275748851250  0.1405340383294060  0.5286688098436017
  0.6595608575406402  0.2419643501194528  0.5063761887706946
  0.7013012830317678  0.2171284100397912  0.5095400986538650
  0.3337755207036750  0.8710815801357796  0.4790326055784178
  0.3460690995334517  0.7699176473311979  0.5024499074767874
  0.3043039124552465  0.7944668171270237  0.4989081968713549
  0.0931953170162743  0.0601105005745666  0.4901974775828890
  0.0562261093284704  0.0057393159013657  0.4984930535922274
  0.0932138261707394  0.9515673454854223  0.4931337909786819
  0.9123963673323132  0.9507636105253283  0.5196396814261206
  0.9492505606490624  0.0052672091288457  0.5123340948385504
  0.9123241148125558  0.0591316428869462  0.5176241207072110
  0.5931171032482894  0.5613886220935100  0.4901833646892086
  0.5562555525089437  0.5064439522883148  0.4978745210662581
  0.5933765865356193  0.4528532210128873  0.4929880423367194
  0.4124445565245409  0.4506900458155911  0.5189644651532532
  0.4492738661250684  0.5053835383847485  0.5124133808512994
  0.4122879817277934  0.5590998931417843  0.5169611050732357
  0.1486612792602244  0.4759123261530576  0.5048424069274304
  0.1675233008724177  0.5689609437025069  0.5379243914307423
  0.8569037683155472  0.5346348633518971  0.5035421043029231
  0.8382058022675594  0.4415829466122858  0.4697753363982926
  0.6482189851470324  0.9771809386242722  0.5084755264599252
  0.6670318230473242  0.0703899718678187  0.5411072902687124
  0.3575340462286221  0.0343260220034409  0.4984852563363233
  0.3384833818568964  0.9411955280418098  0.4664757567546971
  0.1460132661909341  0.1647582174140609  0.4530271608724661
  0.1404908139640710  0.2206996454476240  0.4895816965500259
  0.8600694934203617  0.8446982262221070  0.5577805051562024
  0.8652860700537772  0.7896635013238864  0.5194725985522126
  0.1157966041060376  0.7887060029669044  0.5260490643232245
  0.1084874043494963  0.8909188228156566  0.4907835843173061
  0.8896315508632071  0.2213530859710460  0.4824894563378024
  0.8970443507046113  0.1197772994208748  0.5194937720112094
  0.6459538015677992  0.6665584827948123  0.4547956013146859
  0.6400460291036367  0.7226603509618670  0.4906973594590767
  0.3597485255443260  0.3446007554294042  0.5533816969257472
  0.3656555079029573  0.2890839263116618  0.5165100274304635
  0.6157178120453111  0.2894630535847753  0.5237330748959579
  0.6088522016159317  0.3925944686231020  0.4909106049042578
  0.3897468646980045  0.7219968562958528  0.4839396851474760
  0.3969006682116145  0.6196017110569159  0.5188415793318910
  0.2487218050310815  0.3179038386002588  0.5069330183970564
  0.2773096914578517  0.2369567928029568  0.4973331990982146
  0.7702175197760468  0.8021473457771719  0.5121727192375261
  0.7285058201823844  0.7746114602441025  0.5079687223610208
  0.2481521814350387  0.6931396250778619  0.5124380616725475
  0.2282838141150805  0.7377562257056027  0.5090275833889848
  0.7700941502509906  0.2082384788266438  0.5036145660998557
  0.7773493525644284  0.2731126658682044  0.4993144818631734
  0.0143686208666480  0.0628839118843416  0.5038524918095248
  0.0283815870724169  0.0056375819392755  0.5025490110344037
  0.5143525359981851  0.5632325251736319  0.5035779137524585
  0.5284071096876986  0.5060635206843500  0.5020013224455298
  0.1852822341242515  0.4761004183770936  0.5742805172132179
  0.1682113602790736  0.4406883504905537  0.5346772165483173
  0.8206956154577583  0.5344799881666020  0.4326742604213933
  0.8375489833630780  0.5699303684250481  0.4729002547151211
  0.6845281924231230  0.9778630653088740  0.5791150834065064
  0.6676007065638743  0.9421810073041499  0.5392919040266406
  0.3210561059908770  0.0338002779986581  0.4284635333631570
  0.3381494455062537  0.0694493916742118  0.4678098419139118
  0.1162062568984013  0.2237279365118070  0.5178015594023790
  0.1085105702994724  0.1208155126624817  0.4851946156375746
  0.8891997369185631  0.7877694085104778  0.4889888567140659
  0.8971462320586951  0.8898627635017462  0.5238996058133907
  0.1459605252661476  0.8463275337951401  0.4606373839100826
  0.1401541479774409  0.7911061834582966  0.4982168535255553
  0.8597095986973784  0.1650143811027007  0.5498580295188944
  0.8654094122927205  0.2196162085864515  0.5111988144453150
  0.6156487554124723  0.7253189888424387  0.5182443318027126
  0.6083551499769939  0.6222312300200059  0.4856356304551355
  0.3899759739582507  0.2870866024664522  0.4884577124295717
  0.3972288086191611  0.3897187457780475  0.5227103647837268
  0.6467590826631806  0.3490072586618211  0.4630249727676201
  0.6403558473207767  0.2924755755431718  0.4977629959792296
  0.3592428446264861  0.6639663022786308  0.5479844657649124
  0.3653295550541102  0.7196581353827227  0.5114328854865775
  0.2356769482769963  0.2084673929986849  0.4978548509816250
  0.2287259364209930  0.2732381631603928  0.5045846499591420
  0.7569801216279970  0.6937520936693957  0.4953183549340494
  0.7770677788948959  0.7376697323055197  0.5024571972951293
  0.2354694210657300  0.8026258223529297  0.5039311823572206
  0.2770243559749588  0.7742044172957421  0.5038543256690318
  0.7575637231712875  0.3179539356278553  0.4967439758677088
  0.7285970334574756  0.2370836917900547  0.5045664435669082
  0.0142894312708179  0.9483091768165650  0.5049784104380706
  0.9776720773344039  0.0054913175792421  0.5088544524257870
  0.5143536982307353  0.4486723891205102  0.5044564691360520
  0.4776975964575243  0.5056893252207075  0.5088326908083900
  0.1531862460395530  0.3316446005397680  0.5110928139117092
  0.1840965852332701  0.2493142117027389  0.4951727533373855
  0.1972958559296671  0.3548855595043037  0.5240621450088767
  0.8525791752754515  0.6789552769676206  0.4967516480352288
  0.8216631791099189  0.7608918716401050  0.5147154219861392
  0.8085018548359812  0.6559862320991385  0.4831274697283163
  0.1525068711023110  0.6799761196513998  0.5196993242649128
  0.1836369889020872  0.7623863964697435  0.5030647040232310
  0.1966219081691349  0.6552354106993690  0.5238276504289345
  0.8530927866144538  0.3306002258459131  0.4887094462838277
  0.8219385614695369  0.2484963124702304  0.5063172954893744
  0.8090151584825023  0.3554144019831185  0.4836421077214013
  0.6525711586537497  0.8334580099395268  0.5144739531215805
  0.6835750974228958  0.7519609065926716  0.4955047569022213
  0.6966455978769517  0.8560821668187870  0.5297447595350846
  0.3532127669493974  0.1782442485298219  0.4926491657646039
  0.3221751366656065  0.2599783851450823  0.5102050948956460
  0.3091808410382342  0.1556594675810459  0.4764712739791506
  0.6523133803738759  0.1812084623055554  0.5204820931332819
  0.6836822971127035  0.2621287676751578  0.4996829371584752
  0.6963953282552495  0.1556469952990440  0.5244186049251098
  0.3532190562988902  0.8305857611579128  0.4874630314600665
  0.3219506540850787  0.7497681855168636  0.5097167982542743
  0.3091085038387860  0.8558259505642880  0.4831512766261241
  0.0679664014616179  0.0633384986571954  0.4947560009709377
  0.0679847390889918  0.9482856586475634  0.4981669275832843
  0.1068247300846608  0.0059665080622295  0.4894342147611823
  0.9376192134981594  0.9476650402485660  0.5149606640539872
  0.9375629279378472  0.0625962859243927  0.5129555209743373
  0.8986917298549173  0.0047733920295983  0.5212052393920104
  0.5678689159686598  0.5642134310182811  0.4942855099493570
  0.5681302216920017  0.4491528890857168  0.4975227944508092
  0.6068493805295390  0.5074521500602671  0.4897193095309049
  0.4377003721395667  0.4477210274139907  0.5150603915637362
  0.4375484884839551  0.5626736899064610  0.5129683445974820
  0.3986964951715777  0.5046272327121457  0.5198717107854378
  0.1481847186623497  0.5403676145001981  0.5061128145199802
  0.8573767427881478  0.4701841216208109  0.5022768052676909
  0.6478265015095985  0.0416389554024974  0.5088852807811790
  0.3578251104993200  0.9698736712356322  0.4982316553026038
  0.1302656100716391  0.1148773771979918  0.4508577157656077
  0.8757625747348783  0.8946771439124603  0.5600926065454814
  0.0998136908626890  0.8384934631375103  0.5226436359223285
  0.9055764554460239  0.1715682197447421  0.4862924622074942
  0.6303174154779256  0.6164538872326659  0.4521713450070735
  0.3753493481827945  0.3947093138367137  0.5567713339508416
  0.5998020844132270  0.3394108090275054  0.5206048543470061
  0.4056646020246504  0.6721053325861135  0.4872534033252975
  0.2729333784994097  0.3002987961836254  0.5035047992850394
  0.7461328322739078  0.8208847851314260  0.5151463617390846
  0.2724239357481437  0.7108125252626891  0.5098730205147888
  0.7459017464803352  0.1898673656819909  0.5062963634585174
  0.9891519526949466  0.0632854941444023  0.5070081253523711
  0.4891429080069756  0.5635198971771800  0.5069386503446083
  0.1851108562818382  0.5398941951669158  0.5758855711565047
  0.8208440122708822  0.4706567494393710  0.4311254289736226
  0.6843301101851722  0.0416931811040300  0.5802525778184418
  0.3211020554438235  0.9699719670418858  0.4276631018115182
  0.1000483838751762  0.1740071818122928  0.5158371492349261
  0.9052625329554971  0.8376514844243204  0.4908709831428411
  0.1303797253478578  0.8961651990032351  0.4568870519491952
  0.8752782656138578  0.1151999463138864  0.5541088989107479
  0.5996393195269150  0.6752709821729113  0.5160263264708220
  0.4058772305527043  0.3372668853555609  0.4911023080433097
  0.6312482566601076  0.3990156176506261  0.4595539184764945
  0.3748023701317607  0.6140766931198556  0.5518690515593434
  0.2597792322143135  0.1900092785592236  0.4940933548995829
  0.7327856763757623  0.7116827850917957  0.4977811449690677
  0.2596331670066974  0.8211910761247125  0.5012916242585277
  0.7332753175654503  0.3004612926897892  0.4993636393418441
  0.9890728699103875  0.9478066558275771  0.5081075907546193
  0.4891385276182731  0.4480475034259968  0.5078936541449153
  0.1334928184345969  0.4515359853873591  0.4775259741160696
  0.8718979212349822  0.5589901598528542  0.5315552810996635
  0.6331620320684763  0.9525941791940085  0.4809336110407685
  0.3726865627691467  0.0588199348999225  0.5257604213624774
  0.1636976318958290  0.1609732778702764  0.4249964530032813
  0.8426799860056420  0.8476353793196481  0.5871950566049406
  0.1093051691204749  0.7458914269356214  0.5527743715646523
  0.8960087933030749  0.2636142487895370  0.4546363972778806
  0.6639197160245658  0.6628231573479226  0.4280553802018119
  0.3418208295236695  0.3478273158901430  0.5803908513442551
  0.6089142217470211  0.2459435360971867  0.5486238171392941
  0.3963439630925691  0.7649131444868473  0.4575560425875125
  0.2447951868738656  0.3692530666113072  0.5113016736692018
  0.7847713277452684  0.8392688956607017  0.5173209945524064
  0.2440217694467890  0.6418587701290122  0.5173292714111994
  0.7844152779098224  0.1704773019496386  0.5044813350044066
  0.0240671287343943  0.1093290301048597  0.5022938630394549
  0.5240199769183818  0.6097172185797675  0.5020992586919419
  0.1994220806295672  0.4515699421202726  0.6047966441776822
  0.8067649529079688  0.5590316347813200  0.4015156968827895
  0.6985908791663817  0.9534633609031715  0.6099874255292477
  0.3069759236757150  0.0582297612156495  0.3976939124814791
  0.1099624640382189  0.2670114679824565  0.5439139694690169
  0.8951729346941804  0.7453098314353355  0.4610126438731967
  0.1637618316812635  0.8495174251113866  0.4330154658130922
  0.8420095485311379  0.1623441122503664  0.5780076029692438
  0.6091724327879149  0.7685500335944511  0.5440592297718894
  0.3964573582814523  0.2443184851298881  0.4618122251423102
  0.6650491881549385  0.3530960207509963  0.4378807502751059
  0.3411739067908783  0.6604395391382454  0.5743303927726586
  0.2211960514794171  0.1708729349057307  0.4959109752826762
  0.7608070393855826  0.6427050572640454  0.4877295076035963
  0.2211048840138332  0.8402562436087422  0.5023426525264298
  0.7617813419239354  0.3692401307444797  0.4925310462886188
  0.0239072705431198  0.9019094584040985  0.5043063105890866
  0.5240075457572502  0.4023205850289386  0.5035535809739216
 
  0.00000000E+00  0.00000000E+00  0.00000000E+00
  0.00000000E+00  0.00000000E+00  0.00000000E+00
  0.00000000E+00  0.00000000E+00  0.00000000E+00
  0.00000000E+00  0.00000000E+00  0.00000000E+00
  0.00000000E+00  0.00000000E+00  0.00000000E+00
  0.00000000E+00  0.00000000E+00  0.00000000E+00
  0.00000000E+00  0.00000000E+00  0.00000000E+00
  0.00000000E+00  0.00000000E+00  0.00000000E+00
  0.00000000E+00  0.00000000E+00  0.00000000E+00
  0.00000000E+00  0.00000000E+00  0.00000000E+00
  0.00000000E+00  0.00000000E+00  0.00000000E+00
  0.00000000E+00  0.00000000E+00  0.00000000E+00
  0.00000000E+00  0.00000000E+00  0.00000000E+00
  0.00000000E+00  0.00000000E+00  0.00000000E+00
  0.00000000E+00  0.00000000E+00  0.00000000E+00
  0.00000000E+00  0.00000000E+00  0.00000000E+00
  0.00000000E+00  0.00000000E+00  0.00000000E+00
  0.00000000E+00  0.00000000E+00  0.00000000E+00
  0.00000000E+00  0.00000000E+00  0.00000000E+00
  0.00000000E+00  0.00000000E+00  0.00000000E+00
  0.00000000E+00  0.00000000E+00  0.00000000E+00
  0.00000000E+00  0.00000000E+00  0.00000000E+00
  0.00000000E+00  0.00000000E+00  0.00000000E+00
  0.00000000E+00  0.00000000E+00  0.00000000E+00
  0.00000000E+00  0.00000000E+00  0.00000000E+00
  0.00000000E+00  0.00000000E+00  0.00000000E+00
  0.00000000E+00  0.00000000E+00  0.00000000E+00
  0.00000000E+00  0.00000000E+00  0.00000000E+00
  0.00000000E+00  0.00000000E+00  0.00000000E+00
  0.00000000E+00  0.00000000E+00  0.00000000E+00
  0.00000000E+00  0.00000000E+00  0.00000000E+00
  0.00000000E+00  0.00000000E+00  0.00000000E+00
  0.00000000E+00  0.00000000E+00  0.00000000E+00
  0.00000000E+00  0.00000000E+00  0.00000000E+00
  0.00000000E+00  0.00000000E+00  0.00000000E+00
  0.00000000E+00  0.00000000E+00  0.00000000E+00
  0.00000000E+00  0.00000000E+00  0.00000000E+00
  0.00000000E+00  0.00000000E+00  0.00000000E+00
  0.00000000E+00  0.00000000E+00  0.00000000E+00
  0.00000000E+00  0.00000000E+00  0.00000000E+00
  0.00000000E+00  0.00000000E+00  0.00000000E+00
  0.00000000E+00  0.00000000E+00  0.00000000E+00
  0.00000000E+00  0.00000000E+00  0.00000000E+00
  0.00000000E+00  0.00000000E+00  0.00000000E+00
  0.00000000E+00  0.00000000E+00  0.00000000E+00
  0.00000000E+00  0.00000000E+00  0.00000000E+00
  0.00000000E+00  0.00000000E+00  0.00000000E+00
  0.00000000E+00  0.00000000E+00  0.00000000E+00
  0.00000000E+00  0.00000000E+00  0.00000000E+00
  0.00000000E+00  0.00000000E+00  0.00000000E+00
  0.00000000E+00  0.00000000E+00  0.00000000E+00
  0.00000000E+00  0.00000000E+00  0.00000000E+00
  0.00000000E+00  0.00000000E+00  0.00000000E+00
  0.00000000E+00  0.00000000E+00  0.00000000E+00
  0.00000000E+00  0.00000000E+00  0.00000000E+00
  0.00000000E+00  0.00000000E+00  0.00000000E+00
  0.00000000E+00  0.00000000E+00  0.00000000E+00
  0.00000000E+00  0.00000000E+00  0.00000000E+00
  0.00000000E+00  0.00000000E+00  0.00000000E+00
  0.00000000E+00  0.00000000E+00  0.00000000E+00
  0.00000000E+00  0.00000000E+00  0.00000000E+00
  0.00000000E+00  0.00000000E+00  0.00000000E+00
  0.00000000E+00  0.00000000E+00  0.00000000E+00
  0.00000000E+00  0.00000000E+00  0.00000000E+00
  0.00000000E+00  0.00000000E+00  0.00000000E+00
  0.00000000E+00  0.00000000E+00  0.00000000E+00
  0.00000000E+00  0.00000000E+00  0.00000000E+00
  0.00000000E+00  0.00000000E+00  0.00000000E+00
  0.00000000E+00  0.00000000E+00  0.00000000E+00
  0.00000000E+00  0.00000000E+00  0.00000000E+00
  0.00000000E+00  0.00000000E+00  0.00000000E+00
  0.00000000E+00  0.00000000E+00  0.00000000E+00
  0.00000000E+00  0.00000000E+00  0.00000000E+00
  0.00000000E+00  0.00000000E+00  0.00000000E+00
  0.00000000E+00  0.00000000E+00  0.00000000E+00
  0.00000000E+00  0.00000000E+00  0.00000000E+00
  0.00000000E+00  0.00000000E+00  0.00000000E+00
  0.00000000E+00  0.00000000E+00  0.00000000E+00
  0.00000000E+00  0.00000000E+00  0.00000000E+00
  0.00000000E+00  0.00000000E+00  0.00000000E+00
  0.00000000E+00  0.00000000E+00  0.00000000E+00
  0.00000000E+00  0.00000000E+00  0.00000000E+00
  0.00000000E+00  0.00000000E+00  0.00000000E+00
  0.00000000E+00  0.00000000E+00  0.00000000E+00
  0.00000000E+00  0.00000000E+00  0.00000000E+00
  0.00000000E+00  0.00000000E+00  0.00000000E+00
  0.00000000E+00  0.00000000E+00  0.00000000E+00
  0.00000000E+00  0.00000000E+00  0.00000000E+00
  0.00000000E+00  0.00000000E+00  0.00000000E+00
  0.00000000E+00  0.00000000E+00  0.00000000E+00
  0.00000000E+00  0.00000000E+00  0.00000000E+00
  0.00000000E+00  0.00000000E+00  0.00000000E+00
  0.00000000E+00  0.00000000E+00  0.00000000E+00
  0.00000000E+00  0.00000000E+00  0.00000000E+00
  0.00000000E+00  0.00000000E+00  0.00000000E+00
  0.00000000E+00  0.00000000E+00  0.00000000E+00
  0.00000000E+00  0.00000000E+00  0.00000000E+00
  0.00000000E+00  0.00000000E+00  0.00000000E+00
  0.00000000E+00  0.00000000E+00  0.00000000E+00
  0.00000000E+00  0.00000000E+00  0.00000000E+00
  0.00000000E+00  0.00000000E+00  0.00000000E+00
  0.00000000E+00  0.00000000E+00  0.00000000E+00
  0.00000000E+00  0.00000000E+00  0.00000000E+00
  0.00000000E+00  0.00000000E+00  0.00000000E+00
  0.00000000E+00  0.00000000E+00  0.00000000E+00
  0.00000000E+00  0.00000000E+00  0.00000000E+00
  0.00000000E+00  0.00000000E+00  0.00000000E+00
  0.00000000E+00  0.00000000E+00  0.00000000E+00
  0.00000000E+00  0.00000000E+00  0.00000000E+00
  0.00000000E+00  0.00000000E+00  0.00000000E+00
  0.00000000E+00  0.00000000E+00  0.00000000E+00
  0.00000000E+00  0.00000000E+00  0.00000000E+00
  0.00000000E+00  0.00000000E+00  0.00000000E+00
  0.00000000E+00  0.00000000E+00  0.00000000E+00
  0.00000000E+00  0.00000000E+00  0.00000000E+00
  0.00000000E+00  0.00000000E+00  0.00000000E+00
  0.00000000E+00  0.00000000E+00  0.00000000E+00
  0.00000000E+00  0.00000000E+00  0.00000000E+00
  0.00000000E+00  0.00000000E+00  0.00000000E+00
  0.00000000E+00  0.00000000E+00  0.00000000E+00
  0.00000000E+00  0.00000000E+00  0.00000000E+00
  0.00000000E+00  0.00000000E+00  0.00000000E+00
  0.00000000E+00  0.00000000E+00  0.00000000E+00
  0.00000000E+00  0.00000000E+00  0.00000000E+00
  0.00000000E+00  0.00000000E+00  0.00000000E+00
  0.00000000E+00  0.00000000E+00  0.00000000E+00
  0.00000000E+00  0.00000000E+00  0.00000000E+00
  0.00000000E+00  0.00000000E+00  0.00000000E+00
  0.00000000E+00  0.00000000E+00  0.00000000E+00
  0.00000000E+00  0.00000000E+00  0.00000000E+00
  0.00000000E+00  0.00000000E+00  0.00000000E+00
  0.00000000E+00  0.00000000E+00  0.00000000E+00
  0.00000000E+00  0.00000000E+00  0.00000000E+00
  0.00000000E+00  0.00000000E+00  0.00000000E+00
  0.00000000E+00  0.00000000E+00  0.00000000E+00
  0.00000000E+00  0.00000000E+00  0.00000000E+00
  0.00000000E+00  0.00000000E+00  0.00000000E+00
  0.00000000E+00  0.00000000E+00  0.00000000E+00
  0.00000000E+00  0.00000000E+00  0.00000000E+00
  0.00000000E+00  0.00000000E+00  0.00000000E+00
  0.00000000E+00  0.00000000E+00  0.00000000E+00
  0.00000000E+00  0.00000000E+00  0.00000000E+00
  0.00000000E+00  0.00000000E+00  0.00000000E+00
  0.00000000E+00  0.00000000E+00  0.00000000E+00
  0.00000000E+00  0.00000000E+00  0.00000000E+00
  0.00000000E+00  0.00000000E+00  0.00000000E+00
  0.00000000E+00  0.00000000E+00  0.00000000E+00
  0.00000000E+00  0.00000000E+00  0.00000000E+00
  0.00000000E+00  0.00000000E+00  0.00000000E+00
  0.00000000E+00  0.00000000E+00  0.00000000E+00
  0.00000000E+00  0.00000000E+00  0.00000000E+00
  0.00000000E+00  0.00000000E+00  0.00000000E+00
  0.00000000E+00  0.00000000E+00  0.00000000E+00
  0.00000000E+00  0.00000000E+00  0.00000000E+00
  0.00000000E+00  0.00000000E+00  0.00000000E+00
  0.00000000E+00  0.00000000E+00  0.00000000E+00
  0.00000000E+00  0.00000000E+00  0.00000000E+00
  0.00000000E+00  0.00000000E+00  0.00000000E+00
  0.00000000E+00  0.00000000E+00  0.00000000E+00
  0.00000000E+00  0.00000000E+00  0.00000000E+00
  0.00000000E+00  0.00000000E+00  0.00000000E+00
  0.00000000E+00  0.00000000E+00  0.00000000E+00
  0.00000000E+00  0.00000000E+00  0.00000000E+00
  0.00000000E+00  0.00000000E+00  0.00000000E+00
  0.00000000E+00  0.00000000E+00  0.00000000E+00
  0.00000000E+00  0.00000000E+00  0.00000000E+00
  0.00000000E+00  0.00000000E+00  0.00000000E+00
  0.00000000E+00  0.00000000E+00  0.00000000E+00
  0.00000000E+00  0.00000000E+00  0.00000000E+00
  0.00000000E+00  0.00000000E+00  0.00000000E+00
  0.00000000E+00  0.00000000E+00  0.00000000E+00
  0.00000000E+00  0.00000000E+00  0.00000000E+00
  0.00000000E+00  0.00000000E+00  0.00000000E+00
  0.00000000E+00  0.00000000E+00  0.00000000E+00
  0.00000000E+00  0.00000000E+00  0.00000000E+00
  0.00000000E+00  0.00000000E+00  0.00000000E+00
  0.00000000E+00  0.00000000E+00  0.00000000E+00
  0.00000000E+00  0.00000000E+00  0.00000000E+00
  0.00000000E+00  0.00000000E+00  0.00000000E+00
  0.00000000E+00  0.00000000E+00  0.00000000E+00
  0.00000000E+00  0.00000000E+00  0.00000000E+00
  0.00000000E+00  0.00000000E+00  0.00000000E+00
  0.00000000E+00  0.00000000E+00  0.00000000E+00
  0.00000000E+00  0.00000000E+00  0.00000000E+00
  0.00000000E+00  0.00000000E+00  0.00000000E+00
  0.00000000E+00  0.00000000E+00  0.00000000E+00
  0.00000000E+00  0.00000000E+00  0.00000000E+00
  0.00000000E+00  0.00000000E+00  0.00000000E+00
  0.00000000E+00  0.00000000E+00  0.00000000E+00
  0.00000000E+00  0.00000000E+00  0.00000000E+00
  0.00000000E+00  0.00000000E+00  0.00000000E+00
  0.00000000E+00  0.00000000E+00  0.00000000E+00
  0.00000000E+00  0.00000000E+00  0.00000000E+00
  0.00000000E+00  0.00000000E+00  0.00000000E+00
  0.00000000E+00  0.00000000E+00  0.00000000E+00
  0.00000000E+00  0.00000000E+00  0.00000000E+00
  0.00000000E+00  0.00000000E+00  0.00000000E+00
  0.00000000E+00  0.00000000E+00  0.00000000E+00
  0.00000000E+00  0.00000000E+00  0.00000000E+00
  0.00000000E+00  0.00000000E+00  0.00000000E+00
  0.00000000E+00  0.00000000E+00  0.00000000E+00
  0.00000000E+00  0.00000000E+00  0.00000000E+00
  0.00000000E+00  0.00000000E+00  0.00000000E+00
  0.00000000E+00  0.00000000E+00  0.00000000E+00
  0.00000000E+00  0.00000000E+00  0.00000000E+00
  0.00000000E+00  0.00000000E+00  0.00000000E+00
  0.00000000E+00  0.00000000E+00  0.00000000E+00
  0.00000000E+00  0.00000000E+00  0.00000000E+00
  0.00000000E+00  0.00000000E+00  0.00000000E+00
  0.00000000E+00  0.00000000E+00  0.00000000E+00
  0.00000000E+00  0.00000000E+00  0.00000000E+00
  0.00000000E+00  0.00000000E+00  0.00000000E+00
  0.00000000E+00  0.00000000E+00  0.00000000E+00
  0.00000000E+00  0.00000000E+00  0.00000000E+00
  0.00000000E+00  0.00000000E+00  0.00000000E+00
  0.00000000E+00  0.00000000E+00  0.00000000E+00
