Primitive Cell                          
   1.00000000000000     
    14.3079396281561468   -0.0008908625727043    0.0000000000000000
     7.1531609994741618   12.3915061599548544    0.0000000000000000
     0.0000000000000000    0.0000000000000000   20.0000000000000000
   H    N    C 
    12    12    21
Direct
  0.9741174236491545  0.5419384351523888  0.6815570002650588
  0.8620150688405275  0.5360664973316815  0.6467976701327629
  0.8620105727191856  0.6599761181685508  0.6468518854181227
  0.5419384351523888  0.9741174236491545  0.6815570002650588
  0.6599761181685508  0.8620105727191856  0.6468518854181227
  0.5360664973316815  0.8620150688405275  0.6467976701327629
  0.5418518757562367  0.5418518757562367  0.6815090861239383
  0.5359696332989756  0.6598766678505328  0.6468158729317111
  0.6598766678505328  0.5359696332989756  0.6468158729317111
  0.1089803169451571  0.4744390743346756  0.4059204605732702
  0.4744390743346756  0.1089803169451571  0.4059204605732702
  0.4745372253626883  0.4745372253626883  0.4058262998924391
  0.5747856128389728  0.7416087548714358  0.5138970555878188
  0.7416087548714358  0.5747856128389728  0.5138970555878188
  0.7416070446291130  0.7416070446291130  0.5138093916933002
  0.4639131573952042  0.2970508473629323  0.5141791322894420
  0.2970508473629323  0.4639131573952042  0.5141791322894420
  0.2970566419301619  0.2970566419301619  0.5143137033409033
  0.0778969857533340  0.4901290658410744  0.5741131259191050
  0.4901290658410744  0.0778969857533340  0.5741131259191050
  0.4899887867158483  0.4899887867158483  0.5740446907914034
  0.9606013464222301  0.5486413916563464  0.4543523614120986
  0.5486413916563464  0.9606013464222301  0.4543523614120986
  0.5487455768716814  0.5487455768716814  0.4542462121112081
  0.6334195513487444  0.7911701621451144  0.5134860757480126
  0.6334129356021947  0.6334129356021947  0.5135106743952988
  0.7911701621451144  0.6334195513487444  0.5134860757480126
  0.4052337129738390  0.2475426336806947  0.5145249414073731
  0.4052278798859348  0.4052278798859348  0.5144157862543253
  0.2475426336806947  0.4052337129738390  0.5145249414073731
  0.9696593060199703  0.5442325184710910  0.5748466256527962
  0.9119966765649110  0.5730105675344177  0.5139817872983414
  0.9139308670659005  0.5720732266958422  0.6414522557651026
  0.5442325184710910  0.9696593060199703  0.5748466256527962
  0.5730105675344177  0.9119966765649110  0.5139817872983414
  0.5720732266958422  0.9139308670659005  0.6414522557651026
  0.5441227241862308  0.5441227241862308  0.5747884241946579
  0.5729916171447300  0.5729916171447300  0.5139339647738694
  0.5719633162544255  0.5719633162544255  0.6414170470915508
  0.1267500480936903  0.4656407731349717  0.5143405768471396
  0.0685832864398677  0.4946740277797659  0.4544757986511243
  0.4656407731349717  0.1267500480936903  0.5143405768471396
  0.4946740277797659  0.0685832864398677  0.4544757986511243
  0.4656236295309242  0.4656236295309242  0.5142291690083454
  0.4947394177486402  0.4947394177486402  0.4543790202452129
 
  0.00000000E+00  0.00000000E+00  0.00000000E+00
  0.00000000E+00  0.00000000E+00  0.00000000E+00
  0.00000000E+00  0.00000000E+00  0.00000000E+00
  0.00000000E+00  0.00000000E+00  0.00000000E+00
  0.00000000E+00  0.00000000E+00  0.00000000E+00
  0.00000000E+00  0.00000000E+00  0.00000000E+00
  0.00000000E+00  0.00000000E+00  0.00000000E+00
  0.00000000E+00  0.00000000E+00  0.00000000E+00
  0.00000000E+00  0.00000000E+00  0.00000000E+00
  0.00000000E+00  0.00000000E+00  0.00000000E+00
  0.00000000E+00  0.00000000E+00  0.00000000E+00
  0.00000000E+00  0.00000000E+00  0.00000000E+00
  0.00000000E+00  0.00000000E+00  0.00000000E+00
  0.00000000E+00  0.00000000E+00  0.00000000E+00
  0.00000000E+00  0.00000000E+00  0.00000000E+00
  0.00000000E+00  0.00000000E+00  0.00000000E+00
  0.00000000E+00  0.00000000E+00  0.00000000E+00
  0.00000000E+00  0.00000000E+00  0.00000000E+00
  0.00000000E+00  0.00000000E+00  0.00000000E+00
  0.00000000E+00  0.00000000E+00  0.00000000E+00
  0.00000000E+00  0.00000000E+00  0.00000000E+00
  0.00000000E+00  0.00000000E+00  0.00000000E+00
  0.00000000E+00  0.00000000E+00  0.00000000E+00
  0.00000000E+00  0.00000000E+00  0.00000000E+00
  0.00000000E+00  0.00000000E+00  0.00000000E+00
  0.00000000E+00  0.00000000E+00  0.00000000E+00
  0.00000000E+00  0.00000000E+00  0.00000000E+00
  0.00000000E+00  0.00000000E+00  0.00000000E+00
  0.00000000E+00  0.00000000E+00  0.00000000E+00
  0.00000000E+00  0.00000000E+00  0.00000000E+00
  0.00000000E+00  0.00000000E+00  0.00000000E+00
  0.00000000E+00  0.00000000E+00  0.00000000E+00
  0.00000000E+00  0.00000000E+00  0.00000000E+00
  0.00000000E+00  0.00000000E+00  0.00000000E+00
  0.00000000E+00  0.00000000E+00  0.00000000E+00
  0.00000000E+00  0.00000000E+00  0.00000000E+00
  0.00000000E+00  0.00000000E+00  0.00000000E+00
  0.00000000E+00  0.00000000E+00  0.00000000E+00
  0.00000000E+00  0.00000000E+00  0.00000000E+00
  0.00000000E+00  0.00000000E+00  0.00000000E+00
  0.00000000E+00  0.00000000E+00  0.00000000E+00
  0.00000000E+00  0.00000000E+00  0.00000000E+00
  0.00000000E+00  0.00000000E+00  0.00000000E+00
  0.00000000E+00  0.00000000E+00  0.00000000E+00
  0.00000000E+00  0.00000000E+00  0.00000000E+00
