Primitive Cell                          
   1.00000000000000     
    45.9506516507566545    0.0140054025006397    0.0000000000000000
   -22.9632498532066869   39.7310081114920663    0.0000000000000000
     0.0000000000000000    0.0000000000000000   20.0000000000000000
   N    H    C 
    18    72   126
Direct
  0.0462619782093086  0.5398912776686018  0.4770434391293037
  0.2398371574764155  0.7098882797815875  0.5394756313239526
  0.2523083720738342  0.5461736326509694  0.4343284651209700
  0.3035526383241276  0.5257559599560082  0.5392748071624212
  0.3115331110452502  0.7601058269461944  0.4337298911893726
  0.9743039790887238  0.4644097004300320  0.5409156314377839
  0.5076556954380251  0.0392906551676901  0.5450049899211393
  0.5091875287805010  0.4667595995156901  0.5407149460709988
  0.4894634229471038  0.7751890862034330  0.5298068681750081
  0.7672059887088736  0.3057825448721658  0.5895403807050457
  0.5570622327053343  0.2481726633083667  0.5953568639286431
  0.7095514032571302  0.4607043775779260  0.5830712172946306
  0.5108582915581650  0.9680922647042678  0.4756589129912925
  0.5136006086241309  0.5426810004426912  0.4769084813852089
  0.4651401398697033  0.7016573055597206  0.4275275106279821
  0.7176674842733490  0.2325633829898308  0.4874072315850739
  0.5320054365861466  0.2958491828648917  0.4906269212986629
  0.7801863521698493  0.4802874756521902  0.4757752176044079
  0.0926485657414773  0.5072732273417699  0.5902684141127565
  0.0296067821985631  0.4758586767900113  0.5823643183471390
  0.0928694932763321  0.5787881118124290  0.4498964478562968
  0.1393306352207873  0.5195634003999814  0.5193729472340323
  0.1396537054494473  0.6138867542963240  0.5149783607416580
  0.2316264271256259  0.6123406792407735  0.4866325537717984
  0.2007023849613034  0.6695855236299550  0.5884322711363694
  0.2449883143483973  0.5101549682683526  0.5852423485413212
  0.1986379353085965  0.5239982263793053  0.5960152667686529
  0.2217217677014460  0.6498503364323085  0.3887393233464920
  0.2669289193394988  0.7107274713549216  0.3821165968495990
  0.2229851403028107  0.5647344254864635  0.3965404526469243
  0.2833764850718552  0.7688442537708653  0.5840610107916859
  0.3012576540920975  0.5505489352381119  0.3812989925946155
  0.3979860099633328  0.8739719674754198  0.5185988144232354
  0.4921709275669173  0.8744362797954608  0.5085194515717646
  0.3987746820631770  0.7820983418705438  0.4812019078722898
  0.4933843145222596  0.6163124238226914  0.5160407515861607
  0.3996270921169724  0.5218860964185410  0.5113842382891605
  0.4003135072172626  0.6149961163561741  0.4818136401676298
  0.8812244104968769  0.4854343893846149  0.5045451853607545
  0.8807438222612447  0.3910281694292692  0.5015058650684168
  0.7888611670546268  0.3923480791058225  0.5338735263657526
  0.6214077560834639  0.1326883269367229  0.5121666339499740
  0.5277629707642717  0.1334394037346343  0.5084971534335736
  0.6208756316884561  0.2250112341281323  0.5446266263240176
  0.5284607341757805  0.3922577120321691  0.5078945605192615
  0.6223608915483823  0.4864241675291723  0.4975521389010993
  0.6221201997076093  0.3941940669471720  0.5366094478463097
  0.9277195222674948  0.4252584094335390  0.5674754662169477
  0.5151466552859958  0.0856269685772020  0.5742244151907840
  0.4329379155293935  0.9201528614236452  0.5910143649236375
  0.4643393675084297  0.9833591814542046  0.5857496422434849
  0.5165768100361987  0.4277653690338994  0.5688907530245331
  0.4326999807516714  0.5088719608929893  0.5848616919480421
  0.4643106599688309  0.4773581549092967  0.5779700231067793
  0.3435327471196956  0.8153716137880451  0.5933679378246524
  0.5052731162382571  0.7319909739038835  0.5744058933267695
  0.4912435174162368  0.6717501287075294  0.5864039582963514
  0.4894152765763380  0.8150307199290410  0.5781917702339285
  0.3443231777874445  0.5276540148132653  0.5874765307390746
  0.7190977136824372  0.2607439202376369  0.6441139420313107
  0.6583085631361811  0.2154114707582195  0.6388054349488925
  0.7955073119041387  0.3543147600829144  0.6249984066914109
  0.5620841153572016  0.2980566091457959  0.6457927239183334
  0.5772649246908799  0.3586975922932965  0.6357899633757995
  0.5772578073794321  0.2201549243593703  0.6324044672583256
  0.7554248491732451  0.4581362781996816  0.6357525533762072
  0.8006227316508543  0.4424959458833868  0.6303470906761248
  0.6620355409278957  0.4424246326017993  0.6224687006635108
  0.9908137020032370  0.5295221943994122  0.4387954748460672
  0.9277365241951827  0.4983662946695020  0.4317435606299540
  0.5557439197358960  0.0239876498173928  0.4392009566059940
  0.5877010399641378  0.0872494296725250  0.4350952550720208
  0.5030205069246207  0.9217763233242451  0.4453779516143044
  0.5568034766280903  0.5301902399207208  0.4344727112785378
  0.5879833254085938  0.4982909015363717  0.4274220608536510
  0.5065698840215376  0.5821559902272924  0.4506222392208912
  0.3592228035157987  0.7891685920466998  0.3949895921066897
  0.4453347622634425  0.6532686808329586  0.3914952260925517
  0.4437077736198276  0.7907651214763476  0.3828071403679232
  0.4593286620143218  0.7455626489598330  0.3754633406224173
  0.3622338034369506  0.5666666731285659  0.3864017839883829
  0.6772397558089907  0.1930818636082421  0.4395341631204772
  0.8234264660281170  0.3353659448011896  0.4309901671929879
  0.7773471374148713  0.2751196336771713  0.4433548932492997
  0.5317902306728755  0.3351178353860575  0.4401649455823105
  0.5287840599445133  0.1894135856161583  0.4402757412817166
  0.5149142961819209  0.2358029597739986  0.4501585037733946
  0.8185449520686703  0.4778417242382460  0.4266083304008959
  0.6763728599655821  0.4811799241904637  0.4215832223545135
  0.7366591163602791  0.4952190301319774  0.4304787005897026
  0.0982986775053973  0.5459684097804356  0.5205937240084282
  0.0797214627592737  0.5163527656010913  0.5579430548570201
  0.0448696108483588  0.4988797373339366  0.5541124897196354
  0.0288140235603223  0.5113058959658048  0.5126893965031698
  0.0796663201242538  0.5563089893970741  0.4811734933681961
  0.1877734075846931  0.6173229187957858  0.4999987639660688
  0.2045616245745876  0.5989353650019780  0.4954086327016611
  0.1877477015231008  0.5639387059305818  0.5043866399677910
  0.1530597255543213  0.5469722305787954  0.5159358273413162
  0.1353605370420112  0.5646502173966610  0.5179355854834569
  0.1531287334963238  0.5999727040273157  0.5117902927230631
  0.2151720816168137  0.6777143530374303  0.5419236420779541
  0.2594491511162857  0.5325642276769855  0.4871980618606457
  0.2391206258819523  0.5222019772943725  0.5446296216052176
  0.2134604652946237  0.5299250508581821  0.5501988496787646
  0.2083972899590165  0.5475624242294828  0.4984830271326643
  0.2086667400027551  0.6542465624330376  0.4906626545534678
  0.2267528144344908  0.6668208969604521  0.4309301190168426
  0.2516566161058904  0.7003370381810541  0.4268168035996354
  0.2589694931062922  0.7207249482907869  0.4838930416016680
  0.2276426010471226  0.5531868454466675  0.4400977908960257
  0.2909334732585975  0.7534557635230854  0.4866508822665878
  0.3011359474745987  0.7743387798645571  0.5433311486374706
  0.3120761990835419  0.5461457181289688  0.4259132709729414
  0.2921887033174428  0.5334568586891422  0.4836722084048688
  0.4475485543404005  0.8261606385033602  0.4936532215211571
  0.4123512440679562  0.8091723818076559  0.4902831983504541
  0.3940622095402446  0.8257119530035624  0.5011434412380211
  0.4117285851632744  0.8603873672634137  0.5135526015871079
  0.4471097014046563  0.8783142237182844  0.5144717216707519
  0.4647706082658019  0.8607862890066329  0.5062420607408455
  0.3957023541181002  0.5664097139227948  0.4973865811202529
  0.4139103565363627  0.6015403427513419  0.4908694260607334
  0.4489386737694545  0.6199296624656583  0.4984339893275376
  0.4660873883625101  0.6024242533855286  0.5107342892531932
  0.4485777427545656  0.5670590908080513  0.5145543618556943
  0.4132564812125850  0.5493330538928660  0.5095969644789662
  0.8326191893412300  0.3874065785046952  0.5181106700314615
  0.8159232169803374  0.4058004808229327  0.5250504313048339
  0.8328231127329460  0.4409242600973329  0.5183887756949659
  0.8674659331043628  0.4579922401837067  0.5065580966762511
  0.8851159028319699  0.4402769351732019  0.5022175812145875
  0.8672946765649812  0.4049145262329432  0.5062660469207714
  0.5722227573389489  0.1814364989930581  0.5272415020237275
  0.6072210577711061  0.1979733089587938  0.5351512771629743
  0.6253959826936040  0.1810713740179608  0.5281065242436966
  0.6078354433648272  0.1465293849021378  0.5146838657911488
  0.5725314207474241  0.1290056241896878  0.5093711009230120
  0.5550463606015157  0.1468298057970401  0.5140545518176438
  0.6265455625098753  0.4423070992648519  0.5155754945763960
  0.6084284806855038  0.4075029811059068  0.5269723111747169
  0.5732377149693022  0.3890684683910308  0.5235695031036229
  0.5558537726926644  0.4062104016696111  0.5102937429366818
  0.5733409369558942  0.4414189481392796  0.5018121010297421
  0.6087225025646319  0.4590881098294446  0.5028082440577677
  0.9408782861869796  0.4480856340605683  0.5371265370706411
  0.4653780683517255  0.9154113802405419  0.5184341450849814
  0.4546240970426823  0.9335180322781440  0.5580722116868984
  0.4718820385477187  0.9684536189067643  0.5557093891160605
  0.4999779110980356  0.9850721360863233  0.5134782121806722
  0.5247054825717967  0.0727932926957351  0.5426191262494342
  0.4669737702112400  0.5483799359899564  0.5179627701705058
  0.4552490584840072  0.5182946872426797  0.5540467337684305
  0.4725915300214254  0.5007610045700659  0.5507326485828017
  0.5016837017935387  0.5135563284350084  0.5110374731249152
  0.5259960744698589  0.4501223822971099  0.5371853063284746
  0.3345218514994954  0.8001243372955003  0.5480628280458646
  0.3570410047428254  0.8047950512291280  0.4962690828082827
  0.4819468387176542  0.7998325643965103  0.5325519817825111
  0.4803443417979736  0.7230727154199528  0.4788665385047750
  0.4920494224732792  0.7136132379540499  0.5350549446176487
  0.4842087264989630  0.6801771122557980  0.5413103296623589
  0.4651287130988564  0.6569061572585113  0.4914392525453977
  0.3357566060439723  0.5334748951424686  0.5409257127503437
  0.7917111874009706  0.3375076114664708  0.5829292134950279
  0.7286561482143412  0.2521308853902866  0.5424315736673719
  0.7085586429208277  0.2451615540723182  0.5998136891448027
  0.6750868881218963  0.2201984811468947  0.5964207014960081
  0.6622800814923551  0.2017504755918083  0.5371071219587336
  0.5640032637513457  0.2234146777508954  0.5901571727014030
  0.5417401126885224  0.2861265805151589  0.5458452668611926
  0.5560582801669653  0.3075556126371168  0.6011537762922856
  0.5643890790728321  0.3409339445915762  0.5951796268024481
  0.5574149259636911  0.3523554210609845  0.5354601978351070
  0.6778060867079816  0.4535770364337637  0.5782402371807933
  0.7618582279751749  0.4734049145175234  0.5322482810207489
  0.7700517778031610  0.4619076111333129  0.5904986573670499
  0.7949419399380560  0.4532786065287340  0.5870463589087365
  0.8121253768157146  0.4572213501754590  0.5266761023151716
  0.9916967358630586  0.4933576631737964  0.5063304290360335
  0.9755797810670686  0.5062312016516657  0.4662842493185977
  0.9407130730597046  0.4888874051576693  0.4628871068523850
  0.9221845758395659  0.4589112639174147  0.4992069670166828
  0.4939713632549498  0.9345869566543072  0.4783599287946814
  0.5190586579360286  0.0223045195384586  0.5086621748158748
  0.5478432633193009  0.0389145088703913  0.4681948097618758
  0.5653633797426849  0.0738541710669196  0.4663862852211125
  0.5540648541710596  0.0919386454355902  0.5045782795442761
  0.4966446606977328  0.5591837351889950  0.4806038242584876
  0.5205303082622734  0.4952665495049331  0.5047274756070834
  0.5489046248859495  0.5072585053563472  0.4631589375904781
  0.5660585011886141  0.4895247949322297  0.4598506797400930
  0.5549645067112721  0.4601160223217633  0.4979709711033919
  0.3431966524219803  0.7848979267959848  0.4386559894130073
  0.4635934434523463  0.8054112092826742  0.4828960767041366
  0.4567010752556158  0.7864375136879005  0.4239634759430260
  0.4652843929945618  0.7615286396375254  0.4194389896538553
  0.4797454473875646  0.7551208789346475  0.4754181490885188
  0.4580712587402118  0.6699610953928357  0.4338560777101890
  0.3587591295871064  0.5501153547111031  0.4888382724552116
  0.3456510654306655  0.5550258225207827  0.4292125940179190
  0.8118860041752285  0.3504379604458023  0.5254110391018401
  0.8078656376033280  0.3270375863092525  0.4759442484880410
  0.7823504894511757  0.2935963429636601  0.4824186826407129
  0.7611479690152478  0.2842465463387569  0.5385021387162894
  0.6855360293372499  0.2078488532953173  0.4856959480871481
  0.5561755478608674  0.2023270286382015  0.5338598490066317
  0.5364188254872673  0.2056555807634766  0.4843149639969511
  0.5286906620694012  0.2313523509189110  0.4893865336304870
  0.5411864570289140  0.2534895747908408  0.5440736186525612
  0.5392845647735811  0.3279184963454966  0.4864397960918581
  0.6635946040565059  0.4586598259073824  0.5201202486920735
  0.6857455097731275  0.4757574444383650  0.4673470481354229
  0.7191793941188180  0.4835812911999113  0.4718785537814725
  0.7297882573374253  0.4739033917995101  0.5293678137807376
  0.8048252926270720  0.4727809805532104  0.4738669340394921
 
  0.00000000E+00  0.00000000E+00  0.00000000E+00
  0.00000000E+00  0.00000000E+00  0.00000000E+00
  0.00000000E+00  0.00000000E+00  0.00000000E+00
  0.00000000E+00  0.00000000E+00  0.00000000E+00
  0.00000000E+00  0.00000000E+00  0.00000000E+00
  0.00000000E+00  0.00000000E+00  0.00000000E+00
  0.00000000E+00  0.00000000E+00  0.00000000E+00
  0.00000000E+00  0.00000000E+00  0.00000000E+00
  0.00000000E+00  0.00000000E+00  0.00000000E+00
  0.00000000E+00  0.00000000E+00  0.00000000E+00
  0.00000000E+00  0.00000000E+00  0.00000000E+00
  0.00000000E+00  0.00000000E+00  0.00000000E+00
  0.00000000E+00  0.00000000E+00  0.00000000E+00
  0.00000000E+00  0.00000000E+00  0.00000000E+00
  0.00000000E+00  0.00000000E+00  0.00000000E+00
  0.00000000E+00  0.00000000E+00  0.00000000E+00
  0.00000000E+00  0.00000000E+00  0.00000000E+00
  0.00000000E+00  0.00000000E+00  0.00000000E+00
  0.00000000E+00  0.00000000E+00  0.00000000E+00
  0.00000000E+00  0.00000000E+00  0.00000000E+00
  0.00000000E+00  0.00000000E+00  0.00000000E+00
  0.00000000E+00  0.00000000E+00  0.00000000E+00
  0.00000000E+00  0.00000000E+00  0.00000000E+00
  0.00000000E+00  0.00000000E+00  0.00000000E+00
  0.00000000E+00  0.00000000E+00  0.00000000E+00
  0.00000000E+00  0.00000000E+00  0.00000000E+00
  0.00000000E+00  0.00000000E+00  0.00000000E+00
  0.00000000E+00  0.00000000E+00  0.00000000E+00
  0.00000000E+00  0.00000000E+00  0.00000000E+00
  0.00000000E+00  0.00000000E+00  0.00000000E+00
  0.00000000E+00  0.00000000E+00  0.00000000E+00
  0.00000000E+00  0.00000000E+00  0.00000000E+00
  0.00000000E+00  0.00000000E+00  0.00000000E+00
  0.00000000E+00  0.00000000E+00  0.00000000E+00
  0.00000000E+00  0.00000000E+00  0.00000000E+00
  0.00000000E+00  0.00000000E+00  0.00000000E+00
  0.00000000E+00  0.00000000E+00  0.00000000E+00
  0.00000000E+00  0.00000000E+00  0.00000000E+00
  0.00000000E+00  0.00000000E+00  0.00000000E+00
  0.00000000E+00  0.00000000E+00  0.00000000E+00
  0.00000000E+00  0.00000000E+00  0.00000000E+00
  0.00000000E+00  0.00000000E+00  0.00000000E+00
  0.00000000E+00  0.00000000E+00  0.00000000E+00
  0.00000000E+00  0.00000000E+00  0.00000000E+00
  0.00000000E+00  0.00000000E+00  0.00000000E+00
  0.00000000E+00  0.00000000E+00  0.00000000E+00
  0.00000000E+00  0.00000000E+00  0.00000000E+00
  0.00000000E+00  0.00000000E+00  0.00000000E+00
  0.00000000E+00  0.00000000E+00  0.00000000E+00
  0.00000000E+00  0.00000000E+00  0.00000000E+00
  0.00000000E+00  0.00000000E+00  0.00000000E+00
  0.00000000E+00  0.00000000E+00  0.00000000E+00
  0.00000000E+00  0.00000000E+00  0.00000000E+00
  0.00000000E+00  0.00000000E+00  0.00000000E+00
  0.00000000E+00  0.00000000E+00  0.00000000E+00
  0.00000000E+00  0.00000000E+00  0.00000000E+00
  0.00000000E+00  0.00000000E+00  0.00000000E+00
  0.00000000E+00  0.00000000E+00  0.00000000E+00
  0.00000000E+00  0.00000000E+00  0.00000000E+00
  0.00000000E+00  0.00000000E+00  0.00000000E+00
  0.00000000E+00  0.00000000E+00  0.00000000E+00
  0.00000000E+00  0.00000000E+00  0.00000000E+00
  0.00000000E+00  0.00000000E+00  0.00000000E+00
  0.00000000E+00  0.00000000E+00  0.00000000E+00
  0.00000000E+00  0.00000000E+00  0.00000000E+00
  0.00000000E+00  0.00000000E+00  0.00000000E+00
  0.00000000E+00  0.00000000E+00  0.00000000E+00
  0.00000000E+00  0.00000000E+00  0.00000000E+00
  0.00000000E+00  0.00000000E+00  0.00000000E+00
  0.00000000E+00  0.00000000E+00  0.00000000E+00
  0.00000000E+00  0.00000000E+00  0.00000000E+00
  0.00000000E+00  0.00000000E+00  0.00000000E+00
  0.00000000E+00  0.00000000E+00  0.00000000E+00
  0.00000000E+00  0.00000000E+00  0.00000000E+00
  0.00000000E+00  0.00000000E+00  0.00000000E+00
  0.00000000E+00  0.00000000E+00  0.00000000E+00
  0.00000000E+00  0.00000000E+00  0.00000000E+00
  0.00000000E+00  0.00000000E+00  0.00000000E+00
  0.00000000E+00  0.00000000E+00  0.00000000E+00
  0.00000000E+00  0.00000000E+00  0.00000000E+00
  0.00000000E+00  0.00000000E+00  0.00000000E+00
  0.00000000E+00  0.00000000E+00  0.00000000E+00
  0.00000000E+00  0.00000000E+00  0.00000000E+00
  0.00000000E+00  0.00000000E+00  0.00000000E+00
  0.00000000E+00  0.00000000E+00  0.00000000E+00
  0.00000000E+00  0.00000000E+00  0.00000000E+00
  0.00000000E+00  0.00000000E+00  0.00000000E+00
  0.00000000E+00  0.00000000E+00  0.00000000E+00
  0.00000000E+00  0.00000000E+00  0.00000000E+00
  0.00000000E+00  0.00000000E+00  0.00000000E+00
  0.00000000E+00  0.00000000E+00  0.00000000E+00
  0.00000000E+00  0.00000000E+00  0.00000000E+00
  0.00000000E+00  0.00000000E+00  0.00000000E+00
  0.00000000E+00  0.00000000E+00  0.00000000E+00
  0.00000000E+00  0.00000000E+00  0.00000000E+00
  0.00000000E+00  0.00000000E+00  0.00000000E+00
  0.00000000E+00  0.00000000E+00  0.00000000E+00
  0.00000000E+00  0.00000000E+00  0.00000000E+00
  0.00000000E+00  0.00000000E+00  0.00000000E+00
  0.00000000E+00  0.00000000E+00  0.00000000E+00
  0.00000000E+00  0.00000000E+00  0.00000000E+00
  0.00000000E+00  0.00000000E+00  0.00000000E+00
  0.00000000E+00  0.00000000E+00  0.00000000E+00
  0.00000000E+00  0.00000000E+00  0.00000000E+00
  0.00000000E+00  0.00000000E+00  0.00000000E+00
  0.00000000E+00  0.00000000E+00  0.00000000E+00
  0.00000000E+00  0.00000000E+00  0.00000000E+00
  0.00000000E+00  0.00000000E+00  0.00000000E+00
  0.00000000E+00  0.00000000E+00  0.00000000E+00
  0.00000000E+00  0.00000000E+00  0.00000000E+00
  0.00000000E+00  0.00000000E+00  0.00000000E+00
  0.00000000E+00  0.00000000E+00  0.00000000E+00
  0.00000000E+00  0.00000000E+00  0.00000000E+00
  0.00000000E+00  0.00000000E+00  0.00000000E+00
  0.00000000E+00  0.00000000E+00  0.00000000E+00
  0.00000000E+00  0.00000000E+00  0.00000000E+00
  0.00000000E+00  0.00000000E+00  0.00000000E+00
  0.00000000E+00  0.00000000E+00  0.00000000E+00
  0.00000000E+00  0.00000000E+00  0.00000000E+00
  0.00000000E+00  0.00000000E+00  0.00000000E+00
  0.00000000E+00  0.00000000E+00  0.00000000E+00
  0.00000000E+00  0.00000000E+00  0.00000000E+00
  0.00000000E+00  0.00000000E+00  0.00000000E+00
  0.00000000E+00  0.00000000E+00  0.00000000E+00
  0.00000000E+00  0.00000000E+00  0.00000000E+00
  0.00000000E+00  0.00000000E+00  0.00000000E+00
  0.00000000E+00  0.00000000E+00  0.00000000E+00
  0.00000000E+00  0.00000000E+00  0.00000000E+00
  0.00000000E+00  0.00000000E+00  0.00000000E+00
  0.00000000E+00  0.00000000E+00  0.00000000E+00
  0.00000000E+00  0.00000000E+00  0.00000000E+00
  0.00000000E+00  0.00000000E+00  0.00000000E+00
  0.00000000E+00  0.00000000E+00  0.00000000E+00
  0.00000000E+00  0.00000000E+00  0.00000000E+00
  0.00000000E+00  0.00000000E+00  0.00000000E+00
  0.00000000E+00  0.00000000E+00  0.00000000E+00
  0.00000000E+00  0.00000000E+00  0.00000000E+00
  0.00000000E+00  0.00000000E+00  0.00000000E+00
  0.00000000E+00  0.00000000E+00  0.00000000E+00
  0.00000000E+00  0.00000000E+00  0.00000000E+00
  0.00000000E+00  0.00000000E+00  0.00000000E+00
  0.00000000E+00  0.00000000E+00  0.00000000E+00
  0.00000000E+00  0.00000000E+00  0.00000000E+00
  0.00000000E+00  0.00000000E+00  0.00000000E+00
  0.00000000E+00  0.00000000E+00  0.00000000E+00
  0.00000000E+00  0.00000000E+00  0.00000000E+00
  0.00000000E+00  0.00000000E+00  0.00000000E+00
  0.00000000E+00  0.00000000E+00  0.00000000E+00
  0.00000000E+00  0.00000000E+00  0.00000000E+00
  0.00000000E+00  0.00000000E+00  0.00000000E+00
  0.00000000E+00  0.00000000E+00  0.00000000E+00
  0.00000000E+00  0.00000000E+00  0.00000000E+00
  0.00000000E+00  0.00000000E+00  0.00000000E+00
  0.00000000E+00  0.00000000E+00  0.00000000E+00
  0.00000000E+00  0.00000000E+00  0.00000000E+00
  0.00000000E+00  0.00000000E+00  0.00000000E+00
  0.00000000E+00  0.00000000E+00  0.00000000E+00
  0.00000000E+00  0.00000000E+00  0.00000000E+00
  0.00000000E+00  0.00000000E+00  0.00000000E+00
  0.00000000E+00  0.00000000E+00  0.00000000E+00
  0.00000000E+00  0.00000000E+00  0.00000000E+00
  0.00000000E+00  0.00000000E+00  0.00000000E+00
  0.00000000E+00  0.00000000E+00  0.00000000E+00
  0.00000000E+00  0.00000000E+00  0.00000000E+00
  0.00000000E+00  0.00000000E+00  0.00000000E+00
  0.00000000E+00  0.00000000E+00  0.00000000E+00
  0.00000000E+00  0.00000000E+00  0.00000000E+00
  0.00000000E+00  0.00000000E+00  0.00000000E+00
  0.00000000E+00  0.00000000E+00  0.00000000E+00
  0.00000000E+00  0.00000000E+00  0.00000000E+00
  0.00000000E+00  0.00000000E+00  0.00000000E+00
  0.00000000E+00  0.00000000E+00  0.00000000E+00
  0.00000000E+00  0.00000000E+00  0.00000000E+00
  0.00000000E+00  0.00000000E+00  0.00000000E+00
  0.00000000E+00  0.00000000E+00  0.00000000E+00
  0.00000000E+00  0.00000000E+00  0.00000000E+00
  0.00000000E+00  0.00000000E+00  0.00000000E+00
  0.00000000E+00  0.00000000E+00  0.00000000E+00
  0.00000000E+00  0.00000000E+00  0.00000000E+00
  0.00000000E+00  0.00000000E+00  0.00000000E+00
  0.00000000E+00  0.00000000E+00  0.00000000E+00
  0.00000000E+00  0.00000000E+00  0.00000000E+00
  0.00000000E+00  0.00000000E+00  0.00000000E+00
  0.00000000E+00  0.00000000E+00  0.00000000E+00
  0.00000000E+00  0.00000000E+00  0.00000000E+00
  0.00000000E+00  0.00000000E+00  0.00000000E+00
  0.00000000E+00  0.00000000E+00  0.00000000E+00
  0.00000000E+00  0.00000000E+00  0.00000000E+00
  0.00000000E+00  0.00000000E+00  0.00000000E+00
  0.00000000E+00  0.00000000E+00  0.00000000E+00
  0.00000000E+00  0.00000000E+00  0.00000000E+00
  0.00000000E+00  0.00000000E+00  0.00000000E+00
  0.00000000E+00  0.00000000E+00  0.00000000E+00
  0.00000000E+00  0.00000000E+00  0.00000000E+00
  0.00000000E+00  0.00000000E+00  0.00000000E+00
  0.00000000E+00  0.00000000E+00  0.00000000E+00
  0.00000000E+00  0.00000000E+00  0.00000000E+00
  0.00000000E+00  0.00000000E+00  0.00000000E+00
  0.00000000E+00  0.00000000E+00  0.00000000E+00
  0.00000000E+00  0.00000000E+00  0.00000000E+00
  0.00000000E+00  0.00000000E+00  0.00000000E+00
  0.00000000E+00  0.00000000E+00  0.00000000E+00
  0.00000000E+00  0.00000000E+00  0.00000000E+00
  0.00000000E+00  0.00000000E+00  0.00000000E+00
  0.00000000E+00  0.00000000E+00  0.00000000E+00
  0.00000000E+00  0.00000000E+00  0.00000000E+00
  0.00000000E+00  0.00000000E+00  0.00000000E+00
  0.00000000E+00  0.00000000E+00  0.00000000E+00
  0.00000000E+00  0.00000000E+00  0.00000000E+00
  0.00000000E+00  0.00000000E+00  0.00000000E+00
  0.00000000E+00  0.00000000E+00  0.00000000E+00
  0.00000000E+00  0.00000000E+00  0.00000000E+00
  0.00000000E+00  0.00000000E+00  0.00000000E+00
  0.00000000E+00  0.00000000E+00  0.00000000E+00
  0.00000000E+00  0.00000000E+00  0.00000000E+00
  0.00000000E+00  0.00000000E+00  0.00000000E+00
