Primitive Cell                          
   1.00000000000000     
    22.1538389134027724   -0.0053827964336610    0.0000000000000000
   -11.0815798742176348   19.1956907091549951    0.0000000000000000
     0.0000000000000000    0.0000000000000000   20.0000000000000000
   H    C    N 
    24    42     6
Direct
  0.1828085164497963  0.5886069518731034  0.6107362766885629
  0.1875943996820126  0.5919559267741050  0.3953227570107885
  0.0560195688925234  0.5258894578931503  0.3975327728380904
  0.2818264100228660  0.7359424923338835  0.5046839102628340
  0.2820048785199987  0.5416370994125117  0.5045699478711683
  0.4764196932048606  0.7361452889934199  0.5043705355301853
  0.5502525386486710  0.2728626467622988  0.5091914523054157
  0.7448834301708942  0.2731516557413940  0.5100459953993592
  0.7446213189366944  0.4674139161882991  0.5089755729371106
  0.5337292246640217  0.0472193383243038  0.6165177959066455
  0.5992442339749928  0.1787261164912479  0.6187406854788691
  0.4286916002699144  0.8350061735776748  0.6108427762890187
  0.5349418865095359  0.4836138154882619  0.6156561792553958
  0.6006074800888186  0.4177661515485838  0.6181548726014512
  0.4294341584547894  0.5897607400149170  0.6104598416772760
  0.9707624448384564  0.4833975315793353  0.6162976790055481
  0.8392146241583873  0.4179992175226133  0.6186864021531946
  0.5993427778675766  0.1740245807034597  0.4033828538506512
  0.4266546530378221  0.8304388564780609  0.3954500281239604
  0.4926460400273740  0.9619468403153704  0.3977638133742190
  0.5975279359185350  0.4189704658412978  0.4027391353079253
  0.4258426153591586  0.5914900632219400  0.3951120874744092
  0.4913421110600709  0.5254621502127748  0.3969657087636449
  0.8437436041378277  0.4191229456404528  0.4032774931786136
  0.1563669140618131  0.5754993340421706  0.5622551153154163
  0.1959353312946632  0.5956510369384773  0.5031651115530593
  0.1591355381486750  0.5774241194862384  0.4426014711106987
  0.0866563479246096  0.5410269295157519  0.4433758106059642
  0.0520306140705316  0.5233718847790243  0.5052208333719221
  0.2734263696997274  0.6345345876139632  0.5047720180799971
  0.3104354834402585  0.5985049703079355  0.5048585920791666
  0.3103217184909042  0.7075711782345877  0.5049188158829452
  0.3834978157110740  0.6346427502059200  0.5046797176746836
  0.3833879347346780  0.7445608994549886  0.5047939380722610
  0.4195328566479049  0.7076650446198087  0.5047837373944475
  0.7532636234375829  0.3745397245161328  0.5092953424208702
  0.7162475621925140  0.4105518290212942  0.5088992353399391
  0.6431850468024436  0.3743624215939576  0.5089330543227248
  0.6071371107354011  0.3013460203084577  0.5089766421751492
  0.6433140058568938  0.2644973141974205  0.5093514310130445
  0.7163728882452105  0.3015094512676981  0.5094253216927740
  0.4420819910307117  0.8615070894852010  0.5623908702826981
  0.5331242159148815  0.0432411253265670  0.5088256921831515
  0.5495663904829158  0.0778389829094905  0.5706782015762286
  0.5856226708344394  0.1502801029808154  0.5714871430176771
  0.6046643220253642  0.1870668293822888  0.5109476201442291
  0.4423473462469900  0.5763258989556093  0.5619225037945910
  0.5325202717560344  0.4849532492583108  0.5079849220940673
  0.5500247855428029  0.4679534564629364  0.5698945063200682
  0.5862069460324548  0.4317089562608629  0.5708368880032708
  0.6043787195627104  0.4129899061479492  0.5103493518097650
  0.9746476744801171  0.4847175561451209  0.5086339136795033
  0.9400632587249760  0.4678974953684047  0.5705025551850795
  0.8675918613704994  0.4318815603308366  0.5713727240598701
  0.8307457793122737  0.4132385182102922  0.5108466879818963
  0.4222254914185157  0.8220097626003877  0.5032707864392236
  0.4408568581584973  0.8588475353224538  0.4427434955359288
  0.4772437782247465  0.9312838068482279  0.4435829640467475
  0.4945548945179397  0.9658620841125085  0.5054563388870861
  0.5856466536765694  0.1475543831060619  0.4518424769357665
  0.4222457118361262  0.5959479245023900  0.5029338264357079
  0.4402689584735029  0.5773319888516610  0.4423045901036531
  0.4763629023389839  0.5409638317341674  0.4429062631072256
  0.4939652957302982  0.5237661407210581  0.5046739059042551
  0.5844162824647583  0.4324356785030403  0.4511656512489282
  0.8702663574320155  0.4325259880104184  0.4517200489890598
  0.0867670865186270  0.5405031734974770  0.5638129017697864
  0.4771608332343646  0.9310827931764223  0.5640252064332287
  0.4770322971642713  0.5414189951995994  0.5633572025416385
  0.5510898156186954  0.0779890397397907  0.4502266286117802
  0.5496341298935263  0.4672260927478860  0.4494372547207064
  0.9398791135908766  0.4670241350655289  0.4500572447677484
 
  0.00000000E+00  0.00000000E+00  0.00000000E+00
  0.00000000E+00  0.00000000E+00  0.00000000E+00
  0.00000000E+00  0.00000000E+00  0.00000000E+00
  0.00000000E+00  0.00000000E+00  0.00000000E+00
  0.00000000E+00  0.00000000E+00  0.00000000E+00
  0.00000000E+00  0.00000000E+00  0.00000000E+00
  0.00000000E+00  0.00000000E+00  0.00000000E+00
  0.00000000E+00  0.00000000E+00  0.00000000E+00
  0.00000000E+00  0.00000000E+00  0.00000000E+00
  0.00000000E+00  0.00000000E+00  0.00000000E+00
  0.00000000E+00  0.00000000E+00  0.00000000E+00
  0.00000000E+00  0.00000000E+00  0.00000000E+00
  0.00000000E+00  0.00000000E+00  0.00000000E+00
  0.00000000E+00  0.00000000E+00  0.00000000E+00
  0.00000000E+00  0.00000000E+00  0.00000000E+00
  0.00000000E+00  0.00000000E+00  0.00000000E+00
  0.00000000E+00  0.00000000E+00  0.00000000E+00
  0.00000000E+00  0.00000000E+00  0.00000000E+00
  0.00000000E+00  0.00000000E+00  0.00000000E+00
  0.00000000E+00  0.00000000E+00  0.00000000E+00
  0.00000000E+00  0.00000000E+00  0.00000000E+00
  0.00000000E+00  0.00000000E+00  0.00000000E+00
  0.00000000E+00  0.00000000E+00  0.00000000E+00
  0.00000000E+00  0.00000000E+00  0.00000000E+00
  0.00000000E+00  0.00000000E+00  0.00000000E+00
  0.00000000E+00  0.00000000E+00  0.00000000E+00
  0.00000000E+00  0.00000000E+00  0.00000000E+00
  0.00000000E+00  0.00000000E+00  0.00000000E+00
  0.00000000E+00  0.00000000E+00  0.00000000E+00
  0.00000000E+00  0.00000000E+00  0.00000000E+00
  0.00000000E+00  0.00000000E+00  0.00000000E+00
  0.00000000E+00  0.00000000E+00  0.00000000E+00
  0.00000000E+00  0.00000000E+00  0.00000000E+00
  0.00000000E+00  0.00000000E+00  0.00000000E+00
  0.00000000E+00  0.00000000E+00  0.00000000E+00
  0.00000000E+00  0.00000000E+00  0.00000000E+00
  0.00000000E+00  0.00000000E+00  0.00000000E+00
  0.00000000E+00  0.00000000E+00  0.00000000E+00
  0.00000000E+00  0.00000000E+00  0.00000000E+00
  0.00000000E+00  0.00000000E+00  0.00000000E+00
  0.00000000E+00  0.00000000E+00  0.00000000E+00
  0.00000000E+00  0.00000000E+00  0.00000000E+00
  0.00000000E+00  0.00000000E+00  0.00000000E+00
  0.00000000E+00  0.00000000E+00  0.00000000E+00
  0.00000000E+00  0.00000000E+00  0.00000000E+00
  0.00000000E+00  0.00000000E+00  0.00000000E+00
  0.00000000E+00  0.00000000E+00  0.00000000E+00
  0.00000000E+00  0.00000000E+00  0.00000000E+00
  0.00000000E+00  0.00000000E+00  0.00000000E+00
  0.00000000E+00  0.00000000E+00  0.00000000E+00
  0.00000000E+00  0.00000000E+00  0.00000000E+00
  0.00000000E+00  0.00000000E+00  0.00000000E+00
  0.00000000E+00  0.00000000E+00  0.00000000E+00
  0.00000000E+00  0.00000000E+00  0.00000000E+00
  0.00000000E+00  0.00000000E+00  0.00000000E+00
  0.00000000E+00  0.00000000E+00  0.00000000E+00
  0.00000000E+00  0.00000000E+00  0.00000000E+00
  0.00000000E+00  0.00000000E+00  0.00000000E+00
  0.00000000E+00  0.00000000E+00  0.00000000E+00
  0.00000000E+00  0.00000000E+00  0.00000000E+00
  0.00000000E+00  0.00000000E+00  0.00000000E+00
  0.00000000E+00  0.00000000E+00  0.00000000E+00
  0.00000000E+00  0.00000000E+00  0.00000000E+00
  0.00000000E+00  0.00000000E+00  0.00000000E+00
  0.00000000E+00  0.00000000E+00  0.00000000E+00
  0.00000000E+00  0.00000000E+00  0.00000000E+00
  0.00000000E+00  0.00000000E+00  0.00000000E+00
  0.00000000E+00  0.00000000E+00  0.00000000E+00
  0.00000000E+00  0.00000000E+00  0.00000000E+00
  0.00000000E+00  0.00000000E+00  0.00000000E+00
  0.00000000E+00  0.00000000E+00  0.00000000E+00
  0.00000000E+00  0.00000000E+00  0.00000000E+00
