Primitive Cell                          
   1.00000000000000     
    38.6446443293403163   -0.0447139773112669    0.0000000000000000
   -19.3607184923011388   33.6219668682190971    0.0000000000000000
     0.0000000000000000    0.0000000000000000   20.0000000000000000
   C    H    N 
   180   144    36
Direct
  0.0978275260624173  0.6565644237036068  0.5400450418653620
  0.1646134307783811  0.6976022597585256  0.5328814784730227
  0.1397424944091412  0.6319770466631311  0.5549973292032035
  0.5986202519197050  0.9165922566456643  0.5280196311184966
  0.5751274438110130  0.8531103389277703  0.4935842242924693
  0.5327422496709247  0.8774395766478946  0.5018334137576375
  0.3541285747237666  0.4182763777088994  0.4962542148082747
  0.3113173090662329  0.4419749953111634  0.4894779987852758
  0.3778332140869125  0.4850551138378449  0.4994705398081436
  0.9310110604886930  0.3335169372218516  0.5179369536572125
  0.8656763445069089  0.2937638854874081  0.4917085322090458
  0.8921350019821190  0.3608243799727475  0.4936058447551588
  0.4327747028750721  0.0765649999782809  0.5395673859696615
  0.4571312342757707  0.1427032962569683  0.5278772411898558
  0.4993664342597484  0.1194716509594258  0.5506986159833716
  0.6755889184166151  0.5760146426061112  0.5137552973128194
  0.7182184961544067  0.5522985824612903  0.5051292566822454
  0.6520334910794645  0.5093949824263575  0.5206907477439344
  0.4398212423663495  0.3356176639418678  0.4832835992349516
  0.4621533108510363  0.2924967124362823  0.5018692829817653
  0.5062917430075444  0.3592241956469593  0.4997942364351644
  0.6755250217611746  0.0832809192267163  0.5372367462592038
  0.7155695834298754  0.1485944100563401  0.5136371478165813
  0.6512377350333409  0.1260905446826825  0.5473713900252122
  0.9325422854150034  0.5751325026622496  0.4785928298093083
  0.8659730139265918  0.5510709661015696  0.4885049274186315
  0.8898232347344148  0.5082318753036787  0.4771556122534619
  0.5905387047367867  0.6584677455296060  0.4765242355332262
  0.5680814313639004  0.7020434395621749  0.4864952798773885
  0.5236926862742877  0.6354226313476445  0.4854536397283553
  0.3539450184710518  0.9109705674005966  0.4871154133888425
  0.3134045553417906  0.8443552715367488  0.5005175353899531
  0.3803154182653756  0.8701602497799215  0.4851134217225450
  0.0985837946400210  0.4187887420170071  0.5367345747079426
  0.1642567762391565  0.4432393281350144  0.5153923565489436
  0.1426223921980707  0.4853604074652011  0.5507081997115435
  0.2004462720063671  0.7370222638402595  0.5218908938132500
  0.2435763770517667  0.8070356868683959  0.5496393828556378
  0.2072675138238580  0.7712510135803186  0.5560707521589592
  0.2499505660324957  0.8417982262582839  0.5922959168417208
  0.5790557831768268  0.8173750735645555  0.4854822434039079
  0.6001094300853751  0.7724094215853512  0.5305055489340731
  0.6021407459203516  0.8094429241342027  0.5300586437911221
  0.6231829582909327  0.7640525392710273  0.5825672346389226
  0.2707244187815263  0.4368552826759711  0.4886447609114342
  0.2051718755430727  0.4107830380774047  0.5399728076226040
  0.2409960917133205  0.4104348584936233  0.5324043977817183
  0.1754434540312602  0.3842888332292276  0.5919128629852395
  0.8293842184521765  0.2540412991579473  0.4893147626831436
  0.7884089685550322  0.1891321408459206  0.5412541812853178
  0.8248937000967231  0.2244538886036267  0.5344024524383357
  0.7842967408024961  0.1596909495040322  0.5943223961147837
  0.4529641582960693  0.1781627344538279  0.5165894164402474
  0.4285217471655400  0.2226417243428145  0.5493145637942760
  0.4271079903461015  0.1859231588714607  0.5541569421475856
  0.4022864171666711  0.2309601354962680  0.5944345087006297
  0.7586102076729233  0.5573104987370385  0.4975924534665026
  0.8259141829335235  0.5800507361918577  0.5388481963801652
  0.7899207276985223  0.5805281802723314  0.5414202202475025
  0.8576140748945988  0.6030384939577260  0.5905780321280076
  0.1181765282944696  0.5644974399708218  0.6025015843285431
  0.1196217308033596  0.5292759445205348  0.6044118106798351
  0.1476397912727379  0.5255645961261024  0.5627602940661802
  0.0909214630587698  0.4976043061235771  0.6519611006235593
  0.4834901765580000  0.8962891736238063  0.5399191495813227
  0.4465563049488068  0.8943414687514846  0.5373966519803091
  0.4180513415493863  0.8685941845981517  0.4899130397853710
  0.4385745167369492  0.9196339394632105  0.5853031991210429
  0.4472419649575627  0.5314509111292978  0.5362910378660573
  0.4826492572540531  0.5679477051352251  0.5347560004433234
  0.4838669551753298  0.5993674709877510  0.4962474178070266
  0.5175125599381758  0.5717074540643807  0.5748469289808185
  0.9173796889477330  0.4311648323434270  0.5237318146796994
  0.9169463412874350  0.4668269953850057  0.5220754016085749
  0.8870305132950307  0.4686292116831794  0.4833598769756549
  0.9480609268887505  0.5009973605294462  0.5631266515076376
  0.5474399948012731  0.1012004081383253  0.6005693451877931
  0.5847105038322482  0.1036528701644173  0.6025567627169650
  0.6153212359997653  0.1302728713737267  0.5579702420734591
  0.5896186515669299  0.0775605655960803  0.6532588390534286
  0.5818869820395705  0.4627463390201356  0.5553547788907736
  0.5464056100337658  0.4263609014203809  0.5512960593642191
  0.5458609628629247  0.3953669112663860  0.5125531436485886
  0.5104626452524457  0.4220658455703585  0.5885603179487049
  0.9753779042627073  0.6055207186890570  0.4850408282084189
  0.0300585723391222  0.6522991979585555  0.5559477743685548
  0.9894875813535577  0.6327433811377716  0.5380647981600575
  0.0447897403776949  0.6788099280580440  0.6166530707962465
  0.6663185168586665  0.0415248730985809  0.5433431316171848
  0.6241718140212384  0.9776937688024461  0.5972640253098618
  0.6422994118252490  0.0189545708002967  0.5968923517070479
  0.5974484845601822  0.9545924226210332  0.6549527431687068
  0.4090526412579294  0.3474749542031574  0.4761516442013587
  0.3559423684050671  0.3553053137650366  0.5262269688925514
  0.3771987568615174  0.3347953808819639  0.5210746723821060
  0.3244072278586856  0.3440590564175992  0.5793450472775987
  0.0561118358026178  0.3870619427463566  0.5397439555342913
  0.9912783978269886  0.3664743948997824  0.5898717117598764
  0.0327611109284334  0.3882744101099433  0.5923139843023080
  0.9671764721235121  0.3697217682805061  0.6462933340918937
  0.3646011716393858  0.9532634037464760  0.4919967886673007
  0.3715559528127770  0.0080450249923985  0.5612475641321168
  0.3517897037368272  0.9673008157647516  0.5456269168995149
  0.3605576627595184  0.0228958863849087  0.6227614652681339
  0.6210885653418856  0.6460797119024662  0.4763603777331582
  0.6724588094317667  0.6393674722400249  0.5356145060309885
  0.6516512803164645  0.6598686089741008  0.5240616622212784
  0.7026375378821470  0.6519273675845128  0.5913376145221818
  0.2290563244243629  0.7393001933242118  0.4767247093753326
  0.2647422373694042  0.7746563583581789  0.4661790584872563
  0.2730386055568772  0.8084967867874795  0.5053105447633328
  0.2920690713230911  0.7745057940138906  0.4126411212081891
  0.5563089264298995  0.7891690917466079  0.4368901755550212
  0.5546113977461147  0.7524707634939247  0.4340101801937237
  0.5750178518362716  0.7433513545594650  0.4834193241260039
  0.5311339283153984  0.7244055670456504  0.3780422057568273
  0.2629077089251979  0.4611363623784683  0.4471989487071397
  0.2267432158311848  0.4609133471231459  0.4507869513809339
  0.1988066822385122  0.4374058192659902  0.5003360837850863
  0.2191217430408088  0.4853100312225322  0.4005152759206183
  0.7978861263769090  0.2466854492361463  0.4464025599011237
  0.7614519450154873  0.2111055830495872  0.4497774454046635
  0.7560696209332818  0.1831474788626721  0.4998404707250756
  0.7296935012039398  0.2041163356675355  0.3991646718908441
  0.4779956322607433  0.2059701010993180  0.4692794079642155
  0.4789903630593315  0.2420711659294099  0.4606452761712347
  0.4557170656245191  0.2513385893534377  0.5036640756939548
  0.5046327746889432  0.2691104781116067  0.4052003394795562
  0.7645162689431260  0.5360725101951687  0.4468684704471002
  0.8005516190613662  0.5363557402554662  0.4404449194600701
  0.8306365260319595  0.5567297885424409  0.4890823208640072
  0.8055070010748651  0.5152531432991196  0.3810923351790905
  0.1450010674135669  0.5970503309787460  0.5640419375311936
  0.1770636582741929  0.5597056299633110  0.5277103308860376
  0.1754484497513289  0.5948990310826332  0.5300438625116684
  0.2090780886639081  0.5600204264790634  0.4843713759208370
  0.4924726093732019  0.8728752049533171  0.4980788044181779
  0.4264353540995529  0.8444695707650993  0.4478323343185977
  0.4635679258148002  0.8465756260773105  0.4532635584020923
  0.3972087139839644  0.8173162794014246  0.3960875076394430
  0.4129110685444033  0.5255881640216060  0.5028666392876033
  0.4486484959926216  0.5946023998071084  0.4656592073075672
  0.4134832857942143  0.5577090272225860  0.4700668491471589
  0.4481333084742189  0.6272431735385808  0.4257395661057046
  0.8887817713720096  0.3971256390616631  0.4900522948128767
  0.8570548628378631  0.4340828493776314  0.4508136433735359
  0.8582363343794626  0.3986724911847972  0.4550863680278567
  0.8244974883109251  0.4344988039591087  0.4101389794410935
  0.5401401761872222  0.1257794855372509  0.5589406006480928
  0.6089498927807000  0.1573554104032056  0.5190548810765776
  0.5716401673941220  0.1549380763733623  0.5212863517914030
  0.6394638090154814  0.1875547134673781  0.4720372307409804
  0.6168538065916351  0.4688859989897338  0.5238017806171911
  0.5815597199099400  0.4004402252449779  0.4836118314017455
  0.6167028000885821  0.4371536449688094  0.4903162925701210
  0.5826831195182294  0.3683290724473238  0.4430947176473339
  0.0027196754335179  0.6013195548478123  0.4448394779956715
  0.0432601277124576  0.6209616305129515  0.4599707357377270
  0.0563140506034756  0.6446933001563906  0.5184149175127075
  0.0714419551212373  0.6147631584591693  0.4160668105638479
  0.6762378238574769  0.0227695984638530  0.4933431975053963
  0.6577946220060298  0.9811271019795456  0.4909815013439527
  0.6297478157426042  0.9587342603645155  0.5412418006919992
  0.6653341138563533  0.9613766162494315  0.4322719546296128
  0.4164918419901156  0.3776443342111051  0.4302863667523695
  0.3953392369716084  0.3979098440730979  0.4324400191255151
  0.3667455579989536  0.3882383165562544  0.4839593336003034
  0.4050425226686585  0.4303749087853177  0.3818254074548975
  0.0376010925286892  0.3599024719474215  0.4875875938078522
  0.9957812981219121  0.3381350150965829  0.4824652035724526
  0.9729696696256624  0.3435531858850212  0.5320571500646523
  0.9762085423126834  0.3125710484672624  0.4218769523998205
  0.3942877034371719  0.9805668326498349  0.4490422465350719
  0.4137258609872987  0.0212371996022114  0.4617561479880905
  0.4036654431340807  0.0344965353980129  0.5206607024740606
  0.4462717140827408  0.0495291003737819  0.4151055776703672
  0.6145165083381130  0.6144769527079177  0.4344616623694719
  0.6353000032690090  0.5941405090364498  0.4430285077177913
  0.6626073683617477  0.6053224852589025  0.4969796522673136
  0.6267341891577871  0.5601520792817780  0.3964598542787385
  0.1845478545073291  0.7696771785608476  0.5903511663100218
  0.2501806735689556  0.8654580405000871  0.5618518718851320
  0.2261251573383234  0.8320108084363014  0.6297975799556781
  0.2788108555995947  0.8554458345331852  0.6184628865977899
  0.6204796974235833  0.8319452775840901  0.5669789150345963
  0.6468286578883067  0.7602289552791461  0.5594343891226004
  0.6368519791600065  0.7885291208671674  0.6187828113213669
  0.6038359121702257  0.7364235776080363  0.6101075477997142
  0.2467724310226771  0.3907309514353301  0.5634788664412227
  0.1469437331036332  0.3626100626046025  0.5688985402184983
  0.1872517698019891  0.3681403628802897  0.6200604177437938
  0.1686034471238216  0.4015461480521907  0.6278282780369011
  0.8499403972183686  0.2301097067351776  0.5667039892344192
  0.7783176829109379  0.1313378245416104  0.5721552875372780
  0.8117063856912949  0.1717416474273676  0.6242546812867289
  0.7593027484979729  0.1527418165268060  0.6284398884338387
  0.4068465315064529  0.1637667515338279  0.5899589270091639
  0.3797398619580505  0.2338927408228031  0.5654843964469762
  0.3870087007747500  0.2069137689004563  0.6310329196133608
  0.4196639823191859  0.2590485587908162  0.6219629283784514
  0.7856021704738296  0.5978689329212443  0.5801041473461837
  0.8841582619987562  0.6280167771921583  0.5677191244625988
  0.8460805739976109  0.6147221901145414  0.6292436606458836
  0.8677995020773253  0.5843201791192243  0.6151229159174250
  0.0952920302310574  0.5666060270946147  0.6311987503876892
  0.0840570933728912  0.5118709334906697  0.6933184378914845
  0.0628477424151583  0.4767503674835964  0.6268528001394387
  0.1031242231304077  0.4797989088627048  0.6729883840625845
  0.5062328140670687  0.9166507810798024  0.5747747782734862
  0.4603730879926644  0.9299972634721172  0.6262941240609265
  0.4407284697859524  0.9458174163239121  0.5601168519175133
  0.4085321058561817  0.9031282801470937  0.6073311054395560
  0.4462236720427910  0.5065052549078359  0.5631660989315037
  0.5064188648028107  0.5496229716647036  0.6153337025959900
  0.5379798528277817  0.5666649317908821  0.5436928240549648
  0.5352892511013678  0.6013091564862449  0.5973982597400962
  0.9406882026583503  0.4294755249916804  0.5516870167087617
  0.9597428883184591  0.4894759978055987  0.6018789594149894
  0.9732273304596930  0.5222715403968152  0.5322218068286517
  0.9359400124654016  0.5179225096022932  0.5880119678307025
  0.5232363305324839  0.0793352986717366  0.6317771459353736
  0.5692234089409922  0.0719642620123722  0.6954050297030108
  0.5825953332479870  0.0488182582318686  0.6313801688260483
  0.6201894399385424  0.0911663882685048  0.6727404311331426
  0.5823855873701405  0.4874068920448096  0.5823644961626542
  0.5202661834264291  0.4440638694737302  0.6290922892087991
  0.4905178401259604  0.4267576318983046  0.5553927665079570
  0.4925074853920819  0.3923569709620196  0.6107063319295847
  0.9682387921264848  0.6366106538943370  0.5685696788291494
  0.0702452464265875  0.7081668658169207  0.6040317914685858
  0.0210739731609095  0.6830039477361751  0.6383346185607195
  0.0551579888263589  0.6659772906902148  0.6555447619274446
  0.6361937239927968  0.0339667507009409  0.6374275780048180
  0.5966807908154976  0.9262411261890193  0.6631598247225909
  0.6078715163574060  0.9721214442385957  0.7012038670046365
  0.5665318418153689  0.9475810824197453  0.6459250267539289
  0.3707624070157394  0.3105762006182928  0.5557563048986935
  0.2958841703274686  0.3381397130846295  0.5574434099596530
  0.3196063951855663  0.3175426664287073  0.6068122771107767
  0.3330971312225230  0.3683447663575024  0.6156986518274223
  0.0474383620844776  0.4081841616268420  0.6344187414999283
  0.9397997744963789  0.3412718610461027  0.6559335684666436
  0.9848692737893430  0.3790943556019357  0.6925018848736002
  0.9579676386618416  0.3916909540717910  0.6347344574359042
  0.3280733463535199  0.9460258698617210  0.5783286257199265
  0.3556349622530419  0.0477449928678624  0.6106326088984702
  0.3333726210010468  0.9991406177392506  0.6461609760116218
  0.3847004350506111  0.0339756039613448  0.6601442264015489
  0.6574309674538554  0.6851575670782708  0.5556357892578561
  0.7312009949059188  0.6558599551049937  0.5730683057397812
  0.7079840132789670  0.6799079285203575  0.6140734613905181
  0.6922241417252550  0.6291919043595726  0.6309589204749457
  0.2230806667987579  0.7127096020547157  0.4488696742999849
  0.2747524212227717  0.7507074286523689  0.3764593610858427
  0.3075626703766687  0.8027860680447887  0.3853554402640640
  0.3151580140096968  0.7693065979811990  0.4342185053715397
  0.5391909782707458  0.7959625007908926  0.4012402830190922
  0.5327074357576436  0.7414519621217579  0.3331695085962707
  0.5422770338022502  0.7042518700496743  0.3648063729966822
  0.4994980913629803  0.7058950137739615  0.3915510543082519
  0.2857189461837848  0.4808137400237271  0.4117075145441191
  0.2264921412667746  0.4796718569813052  0.3500772498185327
  0.1879343118530485  0.4783502604846532  0.4001141984216972
  0.2380145981341073  0.5173237984671957  0.4103031485628108
  0.8018710648776022  0.2693929307920087  0.4101279939979108
  0.7433748235726441  0.2145024703049572  0.3496980213531771
  0.7068352199225245  0.1726207599304885  0.3948245352283024
  0.7144907471467974  0.2207299369601472  0.4121643407492925
  0.4972322237451792  0.1992163951139077  0.4386790816741879
  0.5049707845731746  0.2512276220922658  0.3628936395408786
  0.4939310805079629  0.2887602513746685  0.3868097084447371
  0.5356182059317831  0.2880915547628433  0.4217996457652262
  0.7403734407215623  0.5189846050568647  0.4115286081894212
  0.7896148851988087  0.5181063199691778  0.3378057090200954
  0.8368798933106163  0.5272493639566918  0.3669329820354648
  0.7929046496346288  0.4833834866606779  0.3911843359213378
  0.1973341244274280  0.6208689840240709  0.5021572156828924
  0.2278323107591831  0.5511350758999853  0.5120899568221944
  0.1959693203351591  0.5388748278943396  0.4428007230251296
  0.2279031892069270  0.5898401652004637  0.4632117074968889
  0.4706293450891224  0.8282437411004793  0.4210015999327439
  0.3757063740250075  0.7884667332538839  0.4182192343788316
  0.3798646910302281  0.8297951220739392  0.3739823891261906
  0.4128661763238455  0.8115642221305350  0.3556555816336839
  0.3863489387602712  0.5532760332999231  0.4455044177790484
  0.4554665704671734  0.6531962302518934  0.4572133452711924
  0.4703766530177660  0.6376948212417517  0.3853234510677055
  0.4186166793460799  0.6165948994086747  0.4031957412944891
  0.8354795521056744  0.3719664860913099  0.4298798541366509
  0.8042168632815319  0.4392570867890484  0.4422979449319868
  0.8367504332109803  0.4587142324499069  0.3732168006982945
  0.8070957743390892  0.4062455312729867  0.3833443306482991
  0.5662415607510241  0.1750296819380139  0.4906421225105007
  0.6669384920582502  0.2086256799043014  0.4982421081273856
  0.6483257074673787  0.1732200183018975  0.4336749289952166
  0.6269856204912045  0.2040168937083422  0.4467094786995105
  0.6442082956215600  0.4418744328314119  0.4668065120669596
  0.5770622674594108  0.3429318099721286  0.4748057723716101
  0.5596294651546216  0.3567848789532846  0.4039898054252475
  0.6119018030470826  0.3798214615378228  0.4189270166299366
  0.9915854254456562  0.5805436107811275  0.4029635518746701
  0.0579570793339244  0.6036030602709346  0.3668078321638149
  0.0999423020879320  0.6425015354558639  0.4085124737833397
  0.0783656107967516  0.5929482756165498  0.4381948862152925
  0.6962127120505457  0.0406099054323548  0.4530011320709377
  0.6887579312761716  0.9836676516422145  0.3998901699588089
  0.6743172771174173  0.9399749219314160  0.4485926839010261
  0.6382032295516353  0.9445873373395770  0.4017703659498792
  0.4407304270590302  0.3866972249410097  0.3942885181888656
  0.4168388875631237  0.4244520847077240  0.3359990908168839
  0.3787016764687650  0.4326178684810245  0.3682295396402111
  0.4277133516778662  0.4595867110276970  0.4011911101205001
  0.0559212918352827  0.3579334285260884  0.4478842253564821
  0.9982976376939732  0.3101522285696561  0.3908071098586348
  0.9527030470325784  0.2825335347740179  0.4361068240143027
  0.9618617322523590  0.3252712607599335  0.3906436049437687
  0.4037441485968785  0.9694708047190375  0.4068194194341999
  0.4434184375191776  0.0354737007081951  0.3662603555737149
  0.4451706659435288  0.0769957221986743  0.4070738992258427
  0.4760258889409883  0.0581681457548342  0.4352016375547620
  0.5912828774138248  0.6045177814874094  0.3963391915649765
  0.6149399044322692  0.5639441023591658  0.3488077294377803
  0.6536398461177555  0.5583119808111121  0.3856275599489010
  0.6044613370045084  0.5314204442193926  0.4179904317602734
  0.1280363450236024  0.6941444257247298  0.5329219640430551
  0.1716152512267470  0.6670284371851878  0.5382229462928763
  0.1021486139388017  0.6255829950180782  0.5583295559761723
  0.6068457694424723  0.8874465299898091  0.5151585612935321
  0.5384757110610607  0.8477373990005859  0.4810366183488881
  0.5617837029819626  0.9119722543490028  0.5269311428976735
  0.3158675845935974  0.4096604598818914  0.4930876361029988
  0.3414904356765120  0.4799955081424727  0.4864901717524575
  0.3853119584106608  0.4549083333786967  0.5066769364118855
  0.9006263453681385  0.2962333256837937  0.5098062422836023
  0.8604841491074495  0.3250445656824681  0.4791737312506896
  0.9277347846021726  0.3662485602279020  0.5134706484887772
  0.4244447715258701  0.1059971969301614  0.5305620077233755
  0.4951041494558410  0.1503447188714304  0.5317523992881945
  0.4687215899246127  0.0819515044095525  0.5572987915648682
  0.7137894384391714  0.5846798700645977  0.5078204909570516
  0.6880823515119872  0.5142599190066477  0.5054506680451780
  0.6448212551790746  0.5397253843819527  0.5279505306932748
  0.4303672547146249  0.2977369057457508  0.4946465702174194
  0.5003922471785458  0.3222719011102484  0.5084519448986526
  0.4773766749403592  0.3667600033583582  0.4810708716221797
  0.7110239663070956  0.1118171176298617  0.5135316578014795
  0.6866756331301858  0.1572377399461402  0.5284552276765027
  0.6453967075668530  0.0891477410335000  0.5552949512353322
  0.9030726585370701  0.5831417238214343  0.4909700373160319
  0.8579911519426844  0.5129438945679965  0.4868793575525672
  0.9267325320749009  0.5385700816487073  0.4652552675257340
  0.5998960188566969  0.6965389875380765  0.4851417468705961
  0.5296075470496930  0.6725728099431265  0.4911541732721290
  0.5530117826332628  0.6275852844003609  0.4713667173970535
  0.3171414968867126  0.8808756824862769  0.5012835134932914
  0.3447117485058016  0.8378748765705240  0.4974984337232797
  0.3855707866239086  0.9064571347909265  0.4730041979423163
  0.1270431193933845  0.4114825189747009  0.5136451797191768
  0.1735830615101648  0.4806257145692143  0.5320936247566479
  0.1051066522482103  0.4546565442853421  0.5563420282220761
 
  0.00000000E+00  0.00000000E+00  0.00000000E+00
  0.00000000E+00  0.00000000E+00  0.00000000E+00
  0.00000000E+00  0.00000000E+00  0.00000000E+00
  0.00000000E+00  0.00000000E+00  0.00000000E+00
  0.00000000E+00  0.00000000E+00  0.00000000E+00
  0.00000000E+00  0.00000000E+00  0.00000000E+00
  0.00000000E+00  0.00000000E+00  0.00000000E+00
  0.00000000E+00  0.00000000E+00  0.00000000E+00
  0.00000000E+00  0.00000000E+00  0.00000000E+00
  0.00000000E+00  0.00000000E+00  0.00000000E+00
  0.00000000E+00  0.00000000E+00  0.00000000E+00
  0.00000000E+00  0.00000000E+00  0.00000000E+00
  0.00000000E+00  0.00000000E+00  0.00000000E+00
  0.00000000E+00  0.00000000E+00  0.00000000E+00
  0.00000000E+00  0.00000000E+00  0.00000000E+00
  0.00000000E+00  0.00000000E+00  0.00000000E+00
  0.00000000E+00  0.00000000E+00  0.00000000E+00
  0.00000000E+00  0.00000000E+00  0.00000000E+00
  0.00000000E+00  0.00000000E+00  0.00000000E+00
  0.00000000E+00  0.00000000E+00  0.00000000E+00
  0.00000000E+00  0.00000000E+00  0.00000000E+00
  0.00000000E+00  0.00000000E+00  0.00000000E+00
  0.00000000E+00  0.00000000E+00  0.00000000E+00
  0.00000000E+00  0.00000000E+00  0.00000000E+00
  0.00000000E+00  0.00000000E+00  0.00000000E+00
  0.00000000E+00  0.00000000E+00  0.00000000E+00
  0.00000000E+00  0.00000000E+00  0.00000000E+00
  0.00000000E+00  0.00000000E+00  0.00000000E+00
  0.00000000E+00  0.00000000E+00  0.00000000E+00
  0.00000000E+00  0.00000000E+00  0.00000000E+00
  0.00000000E+00  0.00000000E+00  0.00000000E+00
  0.00000000E+00  0.00000000E+00  0.00000000E+00
  0.00000000E+00  0.00000000E+00  0.00000000E+00
  0.00000000E+00  0.00000000E+00  0.00000000E+00
  0.00000000E+00  0.00000000E+00  0.00000000E+00
  0.00000000E+00  0.00000000E+00  0.00000000E+00
  0.00000000E+00  0.00000000E+00  0.00000000E+00
  0.00000000E+00  0.00000000E+00  0.00000000E+00
  0.00000000E+00  0.00000000E+00  0.00000000E+00
  0.00000000E+00  0.00000000E+00  0.00000000E+00
  0.00000000E+00  0.00000000E+00  0.00000000E+00
  0.00000000E+00  0.00000000E+00  0.00000000E+00
  0.00000000E+00  0.00000000E+00  0.00000000E+00
  0.00000000E+00  0.00000000E+00  0.00000000E+00
  0.00000000E+00  0.00000000E+00  0.00000000E+00
  0.00000000E+00  0.00000000E+00  0.00000000E+00
  0.00000000E+00  0.00000000E+00  0.00000000E+00
  0.00000000E+00  0.00000000E+00  0.00000000E+00
  0.00000000E+00  0.00000000E+00  0.00000000E+00
  0.00000000E+00  0.00000000E+00  0.00000000E+00
  0.00000000E+00  0.00000000E+00  0.00000000E+00
  0.00000000E+00  0.00000000E+00  0.00000000E+00
  0.00000000E+00  0.00000000E+00  0.00000000E+00
  0.00000000E+00  0.00000000E+00  0.00000000E+00
  0.00000000E+00  0.00000000E+00  0.00000000E+00
  0.00000000E+00  0.00000000E+00  0.00000000E+00
  0.00000000E+00  0.00000000E+00  0.00000000E+00
  0.00000000E+00  0.00000000E+00  0.00000000E+00
  0.00000000E+00  0.00000000E+00  0.00000000E+00
  0.00000000E+00  0.00000000E+00  0.00000000E+00
  0.00000000E+00  0.00000000E+00  0.00000000E+00
  0.00000000E+00  0.00000000E+00  0.00000000E+00
  0.00000000E+00  0.00000000E+00  0.00000000E+00
  0.00000000E+00  0.00000000E+00  0.00000000E+00
  0.00000000E+00  0.00000000E+00  0.00000000E+00
  0.00000000E+00  0.00000000E+00  0.00000000E+00
  0.00000000E+00  0.00000000E+00  0.00000000E+00
  0.00000000E+00  0.00000000E+00  0.00000000E+00
  0.00000000E+00  0.00000000E+00  0.00000000E+00
  0.00000000E+00  0.00000000E+00  0.00000000E+00
  0.00000000E+00  0.00000000E+00  0.00000000E+00
  0.00000000E+00  0.00000000E+00  0.00000000E+00
  0.00000000E+00  0.00000000E+00  0.00000000E+00
  0.00000000E+00  0.00000000E+00  0.00000000E+00
  0.00000000E+00  0.00000000E+00  0.00000000E+00
  0.00000000E+00  0.00000000E+00  0.00000000E+00
  0.00000000E+00  0.00000000E+00  0.00000000E+00
  0.00000000E+00  0.00000000E+00  0.00000000E+00
  0.00000000E+00  0.00000000E+00  0.00000000E+00
  0.00000000E+00  0.00000000E+00  0.00000000E+00
  0.00000000E+00  0.00000000E+00  0.00000000E+00
  0.00000000E+00  0.00000000E+00  0.00000000E+00
  0.00000000E+00  0.00000000E+00  0.00000000E+00
  0.00000000E+00  0.00000000E+00  0.00000000E+00
  0.00000000E+00  0.00000000E+00  0.00000000E+00
  0.00000000E+00  0.00000000E+00  0.00000000E+00
  0.00000000E+00  0.00000000E+00  0.00000000E+00
  0.00000000E+00  0.00000000E+00  0.00000000E+00
  0.00000000E+00  0.00000000E+00  0.00000000E+00
  0.00000000E+00  0.00000000E+00  0.00000000E+00
  0.00000000E+00  0.00000000E+00  0.00000000E+00
  0.00000000E+00  0.00000000E+00  0.00000000E+00
  0.00000000E+00  0.00000000E+00  0.00000000E+00
  0.00000000E+00  0.00000000E+00  0.00000000E+00
  0.00000000E+00  0.00000000E+00  0.00000000E+00
  0.00000000E+00  0.00000000E+00  0.00000000E+00
  0.00000000E+00  0.00000000E+00  0.00000000E+00
  0.00000000E+00  0.00000000E+00  0.00000000E+00
  0.00000000E+00  0.00000000E+00  0.00000000E+00
  0.00000000E+00  0.00000000E+00  0.00000000E+00
  0.00000000E+00  0.00000000E+00  0.00000000E+00
  0.00000000E+00  0.00000000E+00  0.00000000E+00
  0.00000000E+00  0.00000000E+00  0.00000000E+00
  0.00000000E+00  0.00000000E+00  0.00000000E+00
  0.00000000E+00  0.00000000E+00  0.00000000E+00
  0.00000000E+00  0.00000000E+00  0.00000000E+00
  0.00000000E+00  0.00000000E+00  0.00000000E+00
  0.00000000E+00  0.00000000E+00  0.00000000E+00
  0.00000000E+00  0.00000000E+00  0.00000000E+00
  0.00000000E+00  0.00000000E+00  0.00000000E+00
  0.00000000E+00  0.00000000E+00  0.00000000E+00
  0.00000000E+00  0.00000000E+00  0.00000000E+00
  0.00000000E+00  0.00000000E+00  0.00000000E+00
  0.00000000E+00  0.00000000E+00  0.00000000E+00
  0.00000000E+00  0.00000000E+00  0.00000000E+00
  0.00000000E+00  0.00000000E+00  0.00000000E+00
  0.00000000E+00  0.00000000E+00  0.00000000E+00
  0.00000000E+00  0.00000000E+00  0.00000000E+00
  0.00000000E+00  0.00000000E+00  0.00000000E+00
  0.00000000E+00  0.00000000E+00  0.00000000E+00
  0.00000000E+00  0.00000000E+00  0.00000000E+00
  0.00000000E+00  0.00000000E+00  0.00000000E+00
  0.00000000E+00  0.00000000E+00  0.00000000E+00
  0.00000000E+00  0.00000000E+00  0.00000000E+00
  0.00000000E+00  0.00000000E+00  0.00000000E+00
  0.00000000E+00  0.00000000E+00  0.00000000E+00
  0.00000000E+00  0.00000000E+00  0.00000000E+00
  0.00000000E+00  0.00000000E+00  0.00000000E+00
  0.00000000E+00  0.00000000E+00  0.00000000E+00
  0.00000000E+00  0.00000000E+00  0.00000000E+00
  0.00000000E+00  0.00000000E+00  0.00000000E+00
  0.00000000E+00  0.00000000E+00  0.00000000E+00
  0.00000000E+00  0.00000000E+00  0.00000000E+00
  0.00000000E+00  0.00000000E+00  0.00000000E+00
  0.00000000E+00  0.00000000E+00  0.00000000E+00
  0.00000000E+00  0.00000000E+00  0.00000000E+00
  0.00000000E+00  0.00000000E+00  0.00000000E+00
  0.00000000E+00  0.00000000E+00  0.00000000E+00
  0.00000000E+00  0.00000000E+00  0.00000000E+00
  0.00000000E+00  0.00000000E+00  0.00000000E+00
  0.00000000E+00  0.00000000E+00  0.00000000E+00
  0.00000000E+00  0.00000000E+00  0.00000000E+00
  0.00000000E+00  0.00000000E+00  0.00000000E+00
  0.00000000E+00  0.00000000E+00  0.00000000E+00
  0.00000000E+00  0.00000000E+00  0.00000000E+00
  0.00000000E+00  0.00000000E+00  0.00000000E+00
  0.00000000E+00  0.00000000E+00  0.00000000E+00
  0.00000000E+00  0.00000000E+00  0.00000000E+00
  0.00000000E+00  0.00000000E+00  0.00000000E+00
  0.00000000E+00  0.00000000E+00  0.00000000E+00
  0.00000000E+00  0.00000000E+00  0.00000000E+00
  0.00000000E+00  0.00000000E+00  0.00000000E+00
  0.00000000E+00  0.00000000E+00  0.00000000E+00
  0.00000000E+00  0.00000000E+00  0.00000000E+00
  0.00000000E+00  0.00000000E+00  0.00000000E+00
  0.00000000E+00  0.00000000E+00  0.00000000E+00
  0.00000000E+00  0.00000000E+00  0.00000000E+00