Primitive Cell                          
   1.00000000000000     
    21.9099065430010214    0.0435794999336128    0.0000000000000000
   -10.9168753277755606   19.0260601820485746    0.0000000000000000
     0.0000000000000000    0.0000000000000000   20.0000000000000000
   C    H    N    O 
    30    30    24     6
Direct
  0.2751396941558895  0.6552919393907786  0.5162571207509430
  0.3930678457514603  0.7278425477396553  0.5167484056277445
  0.2012395086767569  0.6445687343254320  0.5148944049518605
  0.4557550194861051  0.8015517230840530  0.5156757841571249
  0.3594602728368343  0.5471047408873631  0.5169562127106886
  0.7365894135380344  0.3388415628696393  0.4911142745890444
  0.6186486013322394  0.2666046771149055  0.4922656483625900
  0.8105230800680090  0.3496177601364181  0.4908649275339911
  0.5556421585255151  0.1931179977163140  0.4930854839939443
  0.6527617589488273  0.4474824271639051  0.4954137183084057
  0.5368638987299121  0.0701805287979411  0.4992739307468383
  0.5656848097923444  0.0346199607852427  0.4634980291100845
  0.5343879267658238  0.9609862478520128  0.4681833268134099
  0.9329438227589435  0.4544826744247814  0.4975031961986716
  0.9671667493950622  0.5195891422161125  0.4632587468285649
  0.0406392664598343  0.5630891615264915  0.4685989122724550
  0.5479298435671325  0.4657215255265825  0.5019984628767276
  0.4838498564329115  0.4369617694742089  0.4660200773616268
  0.4411652092942973  0.4682192749861329  0.4706146182423083
  0.3482418383375006  0.6099874221465456  0.5174299892013607
  0.6638051916975343  0.3845195022058618  0.4932711614920962
  0.4738673894716001  0.9240814492986047  0.5082280278580882
  0.4450462983502916  0.9596252244774917  0.5439687362806680
  0.4762359771861853  0.0332324257233552  0.5392321969158473
  0.0788219989857950  0.5397310193898832  0.5075184851324863
  0.0445302207272960  0.4745679877429936  0.5416643365644234
  0.9710867023852501  0.4311061291438349  0.5363658538817546
  0.4640245018289235  0.5285097768049525  0.5108887081297766
  0.5279561110470823  0.5570957217367294  0.5470349851740153
  0.5707394572976199  0.5259670806616299  0.5423397334843116
  0.6521748564964653  0.1220878033119064  0.4230378292875656
  0.6523125892290906  0.0448074154166349  0.4173307026991040
  0.5537819470096395  0.8803452647037133  0.4479295831746555
  0.5655330516858115  0.9342346608206498  0.3812479303669605
  0.6300347817744694  0.1666412581594727  0.4984677957359622
  0.8782579975438196  0.5170395915395858  0.4236065095692823
  0.9540179905378139  0.5953567934325079  0.4194776308247583
  0.1197565598614361  0.6637817175457741  0.4505248399773620
  0.0658665482688079  0.6233686217720944  0.3834831263807033
  0.8354024911725375  0.4495210295467942  0.4978918231403924
  0.4855163418822244  0.3504411865814703  0.4256864901530264
  0.4083524064264168  0.3508663415407511  0.4191803597707349
  0.3413523401828158  0.4489886300699055  0.4498031249346539
  0.3841732572158421  0.4379273089795106  0.3832610075331644
  0.5525892355557929  0.3729553446996476  0.5005362471372194
  0.4451165688731180  0.0600897051262876  0.6261101873901751
  0.4567732714512829  0.1138375082190848  0.5593662921780904
  0.3586312007961254  0.8720252901363210  0.5841594790012650
  0.3586030211991940  0.9492854498479417  0.5905613835797965
  0.3808819231635567  0.8273082949842063  0.5087757177377554
  0.9451706371239155  0.3712334045046148  0.6217565451938825
  0.8920427209045556  0.3304159314407968  0.5544862997171691
  0.1332374047596545  0.4766477182452533  0.5815351656293473
  0.0569599105013978  0.3986458885840989  0.5858777678477978
  0.1763008312376542  0.5446090222321018  0.5085028703247829
  0.6277551274558775  0.5566681420566297  0.6296169104616638
  0.6705053662086158  0.5450896479601326  0.5632409502366684
  0.5256650735028998  0.6430762991577765  0.5877937271500571
  0.6032059831872232  0.6433768214327813  0.5939168360947633
  0.4597362584547042  0.6215317037460011  0.5114746668916155
  0.2821214072128413  0.5975940286742940  0.5169664323079530
  0.3285601846242656  0.7212191900529490  0.5161955170667909
  0.4058059929058189  0.6743107075818244  0.5176528366421067
  0.7298175050513862  0.3966515329611227  0.4919767311176315
  0.6830716478174779  0.2729410088105837  0.4910760017797315
  0.6061541623424631  0.3202871129077636  0.4932386777943805
  0.6229636631434872  0.0690389214731937  0.4205134586928736
  0.5657762585517432  0.9291085285622316  0.4317893536957271
  0.5763105309787022  0.1441420347092688  0.4979202404810081
  0.9314567152459645  0.5420505182968469  0.4211400011051509
  0.0710796366588582  0.6271962429255566  0.4340994749180638
  0.8588932795505784  0.4190538161844231  0.4961505207321935
  0.4617135925048217  0.3799135462605108  0.4228334738721315
  0.3783727160064814  0.4370753059674186  0.4337856497851433
  0.5831477746661378  0.4266452202468898  0.5002380841692613
  0.4447013710695842  0.0650411028729891  0.5755533286548342
  0.3879313231992469  0.9250480552038169  0.5870759201007303
  0.4346247666502947  0.8501334052688705  0.5099062633555462
  0.9406097575151691  0.3670731134847216  0.5710929171808203
  0.0800432371403090  0.4519743449472315  0.5837289918178143
  0.1528969284029387  0.5751605960552411  0.5094083183325537
  0.6335388052431199  0.5571509397597794  0.5791115926480828
  0.5498680075264701  0.6139672812300461  0.5904036071978496
  0.4290576321622979  0.5678615297968577  0.5123086979418972
  0.5167801012895410  0.8124744657452609  0.5194063102418767
  0.3095601441953661  0.4862525617433420  0.5200908217944900
  0.1901506809137814  0.6946320027725008  0.5182907242504697
  0.4947646346134462  0.1827566173868433  0.4899646635940869
  0.7027229854260568  0.5083550913196717  0.4930925419972496
  0.8216194398975745  0.2996052456536447  0.4866701780993097
 
  0.00000000E+00  0.00000000E+00  0.00000000E+00
  0.00000000E+00  0.00000000E+00  0.00000000E+00
  0.00000000E+00  0.00000000E+00  0.00000000E+00
  0.00000000E+00  0.00000000E+00  0.00000000E+00
  0.00000000E+00  0.00000000E+00  0.00000000E+00
  0.00000000E+00  0.00000000E+00  0.00000000E+00
  0.00000000E+00  0.00000000E+00  0.00000000E+00
  0.00000000E+00  0.00000000E+00  0.00000000E+00
  0.00000000E+00  0.00000000E+00  0.00000000E+00
  0.00000000E+00  0.00000000E+00  0.00000000E+00
  0.00000000E+00  0.00000000E+00  0.00000000E+00
  0.00000000E+00  0.00000000E+00  0.00000000E+00
  0.00000000E+00  0.00000000E+00  0.00000000E+00
  0.00000000E+00  0.00000000E+00  0.00000000E+00
  0.00000000E+00  0.00000000E+00  0.00000000E+00
  0.00000000E+00  0.00000000E+00  0.00000000E+00
  0.00000000E+00  0.00000000E+00  0.00000000E+00
  0.00000000E+00  0.00000000E+00  0.00000000E+00
  0.00000000E+00  0.00000000E+00  0.00000000E+00
  0.00000000E+00  0.00000000E+00  0.00000000E+00
  0.00000000E+00  0.00000000E+00  0.00000000E+00
  0.00000000E+00  0.00000000E+00  0.00000000E+00
  0.00000000E+00  0.00000000E+00  0.00000000E+00
  0.00000000E+00  0.00000000E+00  0.00000000E+00
  0.00000000E+00  0.00000000E+00  0.00000000E+00
  0.00000000E+00  0.00000000E+00  0.00000000E+00
  0.00000000E+00  0.00000000E+00  0.00000000E+00
  0.00000000E+00  0.00000000E+00  0.00000000E+00
  0.00000000E+00  0.00000000E+00  0.00000000E+00
  0.00000000E+00  0.00000000E+00  0.00000000E+00
  0.00000000E+00  0.00000000E+00  0.00000000E+00
  0.00000000E+00  0.00000000E+00  0.00000000E+00
  0.00000000E+00  0.00000000E+00  0.00000000E+00
  0.00000000E+00  0.00000000E+00  0.00000000E+00
  0.00000000E+00  0.00000000E+00  0.00000000E+00
  0.00000000E+00  0.00000000E+00  0.00000000E+00
  0.00000000E+00  0.00000000E+00  0.00000000E+00
  0.00000000E+00  0.00000000E+00  0.00000000E+00
  0.00000000E+00  0.00000000E+00  0.00000000E+00
  0.00000000E+00  0.00000000E+00  0.00000000E+00
  0.00000000E+00  0.00000000E+00  0.00000000E+00
  0.00000000E+00  0.00000000E+00  0.00000000E+00
  0.00000000E+00  0.00000000E+00  0.00000000E+00
  0.00000000E+00  0.00000000E+00  0.00000000E+00
  0.00000000E+00  0.00000000E+00  0.00000000E+00
  0.00000000E+00  0.00000000E+00  0.00000000E+00
  0.00000000E+00  0.00000000E+00  0.00000000E+00
  0.00000000E+00  0.00000000E+00  0.00000000E+00
  0.00000000E+00  0.00000000E+00  0.00000000E+00
  0.00000000E+00  0.00000000E+00  0.00000000E+00
  0.00000000E+00  0.00000000E+00  0.00000000E+00
  0.00000000E+00  0.00000000E+00  0.00000000E+00
  0.00000000E+00  0.00000000E+00  0.00000000E+00
  0.00000000E+00  0.00000000E+00  0.00000000E+00
  0.00000000E+00  0.00000000E+00  0.00000000E+00
  0.00000000E+00  0.00000000E+00  0.00000000E+00
  0.00000000E+00  0.00000000E+00  0.00000000E+00
  0.00000000E+00  0.00000000E+00  0.00000000E+00
  0.00000000E+00  0.00000000E+00  0.00000000E+00
  0.00000000E+00  0.00000000E+00  0.00000000E+00
  0.00000000E+00  0.00000000E+00  0.00000000E+00
  0.00000000E+00  0.00000000E+00  0.00000000E+00
  0.00000000E+00  0.00000000E+00  0.00000000E+00
  0.00000000E+00  0.00000000E+00  0.00000000E+00
  0.00000000E+00  0.00000000E+00  0.00000000E+00
  0.00000000E+00  0.00000000E+00  0.00000000E+00
  0.00000000E+00  0.00000000E+00  0.00000000E+00
  0.00000000E+00  0.00000000E+00  0.00000000E+00
  0.00000000E+00  0.00000000E+00  0.00000000E+00
  0.00000000E+00  0.00000000E+00  0.00000000E+00
  0.00000000E+00  0.00000000E+00  0.00000000E+00
  0.00000000E+00  0.00000000E+00  0.00000000E+00
  0.00000000E+00  0.00000000E+00  0.00000000E+00
  0.00000000E+00  0.00000000E+00  0.00000000E+00
  0.00000000E+00  0.00000000E+00  0.00000000E+00
  0.00000000E+00  0.00000000E+00  0.00000000E+00
  0.00000000E+00  0.00000000E+00  0.00000000E+00
  0.00000000E+00  0.00000000E+00  0.00000000E+00
  0.00000000E+00  0.00000000E+00  0.00000000E+00
  0.00000000E+00  0.00000000E+00  0.00000000E+00
  0.00000000E+00  0.00000000E+00  0.00000000E+00
  0.00000000E+00  0.00000000E+00  0.00000000E+00
  0.00000000E+00  0.00000000E+00  0.00000000E+00
  0.00000000E+00  0.00000000E+00  0.00000000E+00
  0.00000000E+00  0.00000000E+00  0.00000000E+00
  0.00000000E+00  0.00000000E+00  0.00000000E+00
  0.00000000E+00  0.00000000E+00  0.00000000E+00
  0.00000000E+00  0.00000000E+00  0.00000000E+00
  0.00000000E+00  0.00000000E+00  0.00000000E+00
  0.00000000E+00  0.00000000E+00  0.00000000E+00
