Primitive Cell                          
   1.00000000000000     
    21.9915025629352563    0.0131562033694635    0.0000000000000000
   -10.9843282114497818   19.0669814373027293    0.0000000000000000
     0.0000000000000000    0.0000000000000000   20.0000000000000000
   C    N    H 
    48     6    30
Direct
  0.9192157938145442  0.5107089390424306  0.5135190143767687
  0.9607488366871308  0.5896453729346831  0.5094823955759722
  0.9556720444874713  0.4728495716820262  0.5176508536227473
  0.9164102998870050  0.3991736476037602  0.5216460689672147
  0.8461807260901963  0.4746270796987559  0.5125813274190705
  0.8435809617149133  0.3636569584795595  0.5204510586965583
  0.6279312340162519  0.3671825954931833  0.5153352194487297
  0.7299134800670402  0.3640503364073382  0.5152832397621694
  0.6250351290614020  0.2622626270930510  0.5157354475208109
  0.3636700664030741  0.6321581572697283  0.5191515775783628
  0.2586466602178348  0.6291021728266628  0.5191085569390168
  0.3604154825786381  0.7339306836806827  0.5197592578978600
  0.5049794841677198  0.9230407268563141  0.5354951350606001
  0.4690800404333118  0.8500443829386697  0.5352928092633888
  0.6190334360613221  0.1457096934041289  0.5133853717426646
  0.5819363516924199  0.0727044387440756  0.5145233409934775
  0.6190131627877591  0.0307151682740994  0.5104927223531703
  0.5815954186592336  0.9648117488846424  0.5538554271771545
  0.4083476493715494  0.4873464404234369  0.5340303067207941
  0.3711807542909753  0.5233015386988242  0.5338586360392910
  0.5173238462777121  0.3732666963868567  0.5123922838798691
  0.4813219978275001  0.4103862655395076  0.5132931122271245
  0.4023672499071509  0.3733764537838198  0.5089157119165222
  0.3735621018176829  0.4106947301061794  0.5521318410643232
  0.0689667972368184  0.5838853573239291  0.5343226851372407
  0.1420179465350984  0.6212230410252886  0.5341763108668687
  0.0267538547372794  0.6183325620828342  0.5527746116638994
  0.3973266887591294  0.8113308472614165  0.5198484614105112
  0.3615537768820332  0.8473255064629015  0.5035652559199875
  0.3972359432253896  0.9201295269970089  0.5024194241437669
  0.4689805189855392  0.9593922942957320  0.5188047617554119
  0.5077106485372482  0.0366484024365548  0.5187993100352557
  0.4735420901097953  0.0762603939383055  0.5228083960080099
  0.5109923510932433  0.1490283924434337  0.5214238800648801
  0.5845349080582167  0.1848172466974916  0.5165084945174812
  0.4041644636353183  0.5951185456533494  0.5188456786714326
  0.4759455195301783  0.6308829130738829  0.5029131012746788
  0.5131400146650691  0.5951610369225619  0.5017083479719560
  0.4807073452043866  0.5233442399522161  0.5176880427267179
  0.5193096780530553  0.4845657000436319  0.5176798798651703
  0.5929981611007236  0.5186677261889798  0.5218671426640427
  0.6284305611719034  0.4812096296129269  0.5206049001414570
  0.5908618459372548  0.4077113140758044  0.5157309637226817
  0.1811634537476650  0.5885483305988117  0.5187196348491483
  0.1454940015820725  0.5169267124802701  0.5022510132734084
  0.0726508160804116  0.4795588975451963  0.5010826207102355
  0.0329794930783081  0.5116534139703859  0.5175793341922414
  0.8074262070588745  0.4011312041933053  0.5157458088648568
  0.6985164612092021  0.4031894040892965  0.5150289467575959
  0.6955313702288990  0.2934806029601447  0.5154461031593627
  0.5888612482858022  0.2967781199802033  0.5156833038442556
  0.2932094278903463  0.5929860716118682  0.5188774270201790
  0.2898067464591136  0.6995508450877352  0.5196160350792240
  0.3997451762814137  0.7027063508181328  0.5196368204001089
  0.9762544325869555  0.6055879747263120  0.4570017253984773
  0.9278354077350812  0.6118657776037750  0.5246995059167645
  0.9434303799372330  0.3692138996058318  0.5268698491153216
  0.8177736332228633  0.5034150347482580  0.5094725370282021
  0.4965564739731434  0.8216935999734432  0.5475409537028284
  0.6761501871038718  0.1737954926390870  0.5101211509184864
  0.6192785283979916  0.0150719582341381  0.4580211471733477
  0.6741478321326113  0.0633066987401207  0.5255952052499069
  0.6062369099848155  0.9321525280274798  0.5488520256563163
  0.5864146790446085  0.9804550972695125  0.6069717333446150
  0.3153528597257917  0.4958211210163768  0.5458701185161416
  0.4884244346246120  0.3161819176419982  0.5091393320299176
  0.3867413589607622  0.3732950287175782  0.4563780980138432
  0.3798902551056145  0.3182322123912726  0.5239075058670153
  0.3163504676472542  0.3861362762021940  0.5468330539496407
  0.3840716233605619  0.4056874388992640  0.6053065425065611
  0.1700640353931391  0.6769460454315492  0.5465061259772170
  0.0591008459040125  0.6755605847713113  0.5478268675005324
  0.0111353994458341  0.6074097488193502  0.6058904950402066
  0.4166457663624641  0.0495488118422074  0.5281882106517841
  0.4842000332177321  0.1792894228397941  0.5248395314536367
  0.3060517538878287  0.8172768682679177  0.4907775929237417
  0.3691488972837931  0.9470908089826295  0.4873990301132736
  0.6230501367529300  0.5755194503197956  0.5272984544349413
  0.6854243063508889  0.5079368711726389  0.5241432417093961
  0.5013637106424369  0.6864470339251696  0.4905105407974801
  0.5682164897896484  0.6232827261979708  0.4870021132715081
  0.8135468400689874  0.3066812374882275  0.5238567006730861
  0.1758391107497559  0.4917364843543623  0.4894397942915418
  0.0459614869271832  0.4246267930744096  0.4859678609485627
 
  0.00000000E+00  0.00000000E+00  0.00000000E+00
  0.00000000E+00  0.00000000E+00  0.00000000E+00
  0.00000000E+00  0.00000000E+00  0.00000000E+00
  0.00000000E+00  0.00000000E+00  0.00000000E+00
  0.00000000E+00  0.00000000E+00  0.00000000E+00
  0.00000000E+00  0.00000000E+00  0.00000000E+00
  0.00000000E+00  0.00000000E+00  0.00000000E+00
  0.00000000E+00  0.00000000E+00  0.00000000E+00
  0.00000000E+00  0.00000000E+00  0.00000000E+00
  0.00000000E+00  0.00000000E+00  0.00000000E+00
  0.00000000E+00  0.00000000E+00  0.00000000E+00
  0.00000000E+00  0.00000000E+00  0.00000000E+00
  0.00000000E+00  0.00000000E+00  0.00000000E+00
  0.00000000E+00  0.00000000E+00  0.00000000E+00
  0.00000000E+00  0.00000000E+00  0.00000000E+00
  0.00000000E+00  0.00000000E+00  0.00000000E+00
  0.00000000E+00  0.00000000E+00  0.00000000E+00
  0.00000000E+00  0.00000000E+00  0.00000000E+00
  0.00000000E+00  0.00000000E+00  0.00000000E+00
  0.00000000E+00  0.00000000E+00  0.00000000E+00
  0.00000000E+00  0.00000000E+00  0.00000000E+00
  0.00000000E+00  0.00000000E+00  0.00000000E+00
  0.00000000E+00  0.00000000E+00  0.00000000E+00
  0.00000000E+00  0.00000000E+00  0.00000000E+00
  0.00000000E+00  0.00000000E+00  0.00000000E+00
  0.00000000E+00  0.00000000E+00  0.00000000E+00
  0.00000000E+00  0.00000000E+00  0.00000000E+00
  0.00000000E+00  0.00000000E+00  0.00000000E+00
  0.00000000E+00  0.00000000E+00  0.00000000E+00
  0.00000000E+00  0.00000000E+00  0.00000000E+00
  0.00000000E+00  0.00000000E+00  0.00000000E+00
  0.00000000E+00  0.00000000E+00  0.00000000E+00
  0.00000000E+00  0.00000000E+00  0.00000000E+00
  0.00000000E+00  0.00000000E+00  0.00000000E+00
  0.00000000E+00  0.00000000E+00  0.00000000E+00
  0.00000000E+00  0.00000000E+00  0.00000000E+00
  0.00000000E+00  0.00000000E+00  0.00000000E+00
  0.00000000E+00  0.00000000E+00  0.00000000E+00
  0.00000000E+00  0.00000000E+00  0.00000000E+00
  0.00000000E+00  0.00000000E+00  0.00000000E+00
  0.00000000E+00  0.00000000E+00  0.00000000E+00
  0.00000000E+00  0.00000000E+00  0.00000000E+00
  0.00000000E+00  0.00000000E+00  0.00000000E+00
  0.00000000E+00  0.00000000E+00  0.00000000E+00
  0.00000000E+00  0.00000000E+00  0.00000000E+00
  0.00000000E+00  0.00000000E+00  0.00000000E+00
  0.00000000E+00  0.00000000E+00  0.00000000E+00
  0.00000000E+00  0.00000000E+00  0.00000000E+00
  0.00000000E+00  0.00000000E+00  0.00000000E+00
  0.00000000E+00  0.00000000E+00  0.00000000E+00
  0.00000000E+00  0.00000000E+00  0.00000000E+00
  0.00000000E+00  0.00000000E+00  0.00000000E+00
  0.00000000E+00  0.00000000E+00  0.00000000E+00
  0.00000000E+00  0.00000000E+00  0.00000000E+00
  0.00000000E+00  0.00000000E+00  0.00000000E+00
  0.00000000E+00  0.00000000E+00  0.00000000E+00
  0.00000000E+00  0.00000000E+00  0.00000000E+00
  0.00000000E+00  0.00000000E+00  0.00000000E+00
  0.00000000E+00  0.00000000E+00  0.00000000E+00
  0.00000000E+00  0.00000000E+00  0.00000000E+00
  0.00000000E+00  0.00000000E+00  0.00000000E+00
  0.00000000E+00  0.00000000E+00  0.00000000E+00
  0.00000000E+00  0.00000000E+00  0.00000000E+00
  0.00000000E+00  0.00000000E+00  0.00000000E+00
  0.00000000E+00  0.00000000E+00  0.00000000E+00
  0.00000000E+00  0.00000000E+00  0.00000000E+00
  0.00000000E+00  0.00000000E+00  0.00000000E+00
  0.00000000E+00  0.00000000E+00  0.00000000E+00
  0.00000000E+00  0.00000000E+00  0.00000000E+00
  0.00000000E+00  0.00000000E+00  0.00000000E+00
  0.00000000E+00  0.00000000E+00  0.00000000E+00
  0.00000000E+00  0.00000000E+00  0.00000000E+00
  0.00000000E+00  0.00000000E+00  0.00000000E+00
  0.00000000E+00  0.00000000E+00  0.00000000E+00
  0.00000000E+00  0.00000000E+00  0.00000000E+00
  0.00000000E+00  0.00000000E+00  0.00000000E+00
  0.00000000E+00  0.00000000E+00  0.00000000E+00
  0.00000000E+00  0.00000000E+00  0.00000000E+00
  0.00000000E+00  0.00000000E+00  0.00000000E+00
  0.00000000E+00  0.00000000E+00  0.00000000E+00
  0.00000000E+00  0.00000000E+00  0.00000000E+00
  0.00000000E+00  0.00000000E+00  0.00000000E+00
  0.00000000E+00  0.00000000E+00  0.00000000E+00
  0.00000000E+00  0.00000000E+00  0.00000000E+00
