Primitive Cell                          
   1.00000000000000     
    31.2035566286087303    0.0055013445171169    0.0000000000000000
   -15.5970136858194426   27.0355654750679619    0.0000000000000000
     0.0000000000000000    0.0000000000000000   20.0000000000000000
   C    H    N    O 
    99    45     9     9
Direct
  0.5372316160275616  0.0691158462879997  0.5147500194115011
  0.5233695724092371  0.0417467529067324  0.5742036348794883
  0.5234250622750309  0.0414517984969294  0.4553298348190893
  0.5642983427919859  0.2016211567888888  0.5143576519501281
  0.6428109170963836  0.2014983840767144  0.5139234362969987
  0.6167624798170692  0.1498271607356401  0.5140345823498578
  0.5648031810282177  0.1241140097206355  0.5142883617504452
  0.5386711249439955  0.1499568021706565  0.5144831207981255
  0.6160629642201627  0.2265454670245006  0.5140304752101130
  0.5410301879364923  0.2579485299122339  0.5742387343642008
  0.5475679328027283  0.2838397587917498  0.6740956006529757
  0.7225241617688809  0.2582414521637233  0.5729636383156347
  0.7408995589513978  0.2847209163057016  0.6749009559110988
  0.5430035609476960  0.2350605301097133  0.5147167555973056
  0.5380704841686921  0.2562620429364557  0.4554747807925708
  0.6975495995798795  0.2349116104938815  0.5144063230900144
  0.7245418331059952  0.2568248035587715  0.4558222742168212
  0.5403319407375449  0.3026789672060843  0.5720426275210713
  0.7672602533570441  0.3036135730024583  0.5751864916901468
  0.5379328490526092  0.3012605572197131  0.4548360191972805
  0.7695304625125985  0.3019612532104645  0.4565144618577150
  0.6425059323610682  0.4611210010658269  0.5138987795846006
  0.6156490586258414  0.4093718106503275  0.5130013570357264
  0.5638623849688500  0.3826923097369317  0.5133168120012854
  0.5382721951350788  0.4087970427302707  0.5141196683978748
  0.5645348430777517  0.4607399636835439  0.5146734364512895
  0.6164925177476235  0.4868019350689110  0.5147496909308984
  0.8239203069772927  0.3829613924473847  0.5154095406518877
  0.7990230215078640  0.4098404687791657  0.5145991036333157
  0.8241030277157506  0.4616082225878273  0.5146735535585520
  0.8757764869885420  0.4871636941895474  0.5153455866048091
  0.9014537402465947  0.4608680536567107  0.5159371262698684
  0.8755928463544578  0.4089310909824988  0.5161204600543314
  0.4560446553602446  0.8290489930788070  0.5145105553948000
  0.4042764657213311  0.8041468321746876  0.5138278663205327
  0.3775072315543682  0.8291774601680331  0.5142824790603981
  0.4035596257644087  0.8808522928212597  0.5151361421796850
  0.4555378824487377  0.9065608899055135  0.5155204175874530
  0.4816839792293948  0.8807154673989785  0.5153648625067859
  0.3781311406934265  0.5695567173588145  0.5132503575735683
  0.4049379492418552  0.6213070077549361  0.5123266952456191
  0.4567191818676690  0.6480635891092064  0.5128891295490448
  0.4823804519431576  0.6220230211674576  0.5139458743568213
  0.4561752829641748  0.5700593498740218  0.5145033513066508
  0.4041985185104977  0.5439270059215318  0.5143617215753551
  0.1965522502242010  0.6475701576434076  0.5135176709736626
  0.2214780459189711  0.6207190269981169  0.5126519456238015
  0.1964595335610255  0.5689494759411460  0.5130735185588833
  0.1447762079310877  0.5433531208925544  0.5139989362029596
  0.1190372917305638  0.5696098929860014  0.5144717474220784
  0.1448707772129012  0.6215684427256960  0.5144027701128380
  0.4831185059752556  0.9615605503250464  0.5159807720964977
  0.4972504655264416  0.9897334498832109  0.5748765955793687
  0.4836368256601915  0.5424867386866765  0.5153581939604592
  0.5371212929717331  0.4883510667018456  0.5150478035905266
  0.5235981778356660  0.5024700099326225  0.5742719329915076
  0.4976676394237884  0.5285890825041761  0.5744850941215134
  0.0640227757131484  0.5421401578536731  0.5154727384825861
  0.9564522095684254  0.4882756145497211  0.5159907116388212
  0.9843093559198053  0.5024263202119812  0.5750125929314294
  0.0363369566402199  0.5284834281244883  0.5748067252122624
  0.7672732300216367  0.4850332309742953  0.5726582943365912
  0.7218223973686051  0.4843149472256059  0.5743173257980487
  0.7406074398581737  0.4775741663451143  0.6744150320347444
  0.4797620994714933  0.7278117624201812  0.5718794271849461
  0.4790425429939731  0.7725201806206528  0.5741817487987788
  0.4719639546193548  0.7462623155251578  0.6739093212600977
  0.2531824642393730  0.5454503102025825  0.5714751689040725
  0.2986714448145662  0.5462273577255630  0.5733357705698126
  0.2795644046246863  0.5526340670577028  0.6733571409920103
  0.2973072219759558  0.7722337195905311  0.5724269067087917
  0.2526420356991252  0.7267534078965809  0.5740122817242792
  0.2781021477018015  0.7454267512311574  0.6741159751925707
  0.4972089942650939  0.9895209378565113  0.4575263477416485
  0.5103816837165880  0.0155031769340468  0.3550691884435579
  0.4975426407605639  0.5281503349813050  0.4571323119209083
  0.5232569693452689  0.5019013690508842  0.4554058768691718
  0.5103455542676727  0.5144322306598070  0.3549162235497079
  0.0355625490787617  0.5276557968083679  0.4574409516541991
  0.9836046372930767  0.5015848734192687  0.4561503297614067
  0.0085435411953867  0.5136395000559375  0.3554506650992479
  0.5425028445531481  0.3279543366074620  0.5135387680318999
  0.7907013830437464  0.4829612605764666  0.5144364732449986
  0.6972255535219674  0.4823604802488433  0.5145375419329881
  0.7236494287780957  0.4873245560177821  0.4555680204437280
  0.7688432818461308  0.4875384553642235  0.4554611327967990
  0.7904488670753338  0.3282703205234014  0.5157178811580678
  0.4779570429784314  0.7027809434498096  0.5132977549504929
  0.4773251579557396  0.7955954724727050  0.5147113679150763
  0.4825248435866101  0.7745989453948567  0.4554447993722590
  0.4827493907698894  0.7296412117141884  0.4546902753978657
  0.2299252967821204  0.5476549419783936  0.5131380468474518
  0.3234117784541866  0.5482895205844827  0.5136748355694394
  0.2971597642025472  0.5434414676423955  0.4545835437124524
  0.2519772632785262  0.5432263825361261  0.4542649645321077
  0.3227688711479857  0.7957325215307094  0.5142213290707005
  0.2299924189198563  0.7022659743671369  0.5142116732113351
  0.2513956905122186  0.7287597463566300  0.4552954125877875
  0.2963314113091116  0.7739355909611376  0.4552409900050876
  0.5332762705159695  0.0616823474210690  0.6216307613158705
  0.6365177552945909  0.1292238215280719  0.5139903298163730
  0.4983285898644141  0.1294390511531773  0.5148554569535975
  0.6362729534546858  0.2669037710811537  0.5139960656519662
  0.5504581611216040  0.2896449411957036  0.7278405093254818
  0.7348031156959181  0.2820855458703520  0.7285805616790810
  0.5393424223967713  0.2398536273215512  0.4078697293673486
  0.7075126467849913  0.2406651300076419  0.4078222908902092
  0.5392042012290545  0.3185374142675030  0.4068860758597168
  0.7861559387059742  0.3194637941459391  0.4089135820887861
  0.4979279816636932  0.3891022242028512  0.5142734478339293
  0.6363214733254026  0.5271318732659651  0.5155308489128174
  0.6357747398094133  0.3891168027745024  0.5123823064688651
  0.8964146333883320  0.5274998476201276  0.5152943396176681
  0.8961034152529237  0.3890895552975167  0.5168605867519318
  0.7586567387423813  0.3897457045606103  0.5140368336924226
  0.3838265853204916  0.9014804101891727  0.5155972300838840
  0.5220286892908490  0.9012412045762588  0.5161688041380472
  0.3840698215006952  0.7637934808860081  0.5131417888953678
  0.5227263941456215  0.6417668025510039  0.5145521325634377
  0.3844190535504310  0.5035990344045658  0.5154193799543947
  0.3847660687590135  0.6415113659799090  0.5116107513478312
  0.1241640593890025  0.5030196533050386  0.5145886191105689
  0.1243346651290196  0.6413858631653753  0.5153875148428639
  0.2618430969965218  0.6408527615655615  0.5120187194412082
  0.4874832316634681  0.9702792220275640  0.6226713737011167
  0.4879211865998556  0.5385328596107541  0.6221113768308584
  0.5335927295008602  0.4927533455007520  0.6218764654174436
  0.0562224654282417  0.5386075415504479  0.6222734629384092
  0.9647979326842062  0.4927686722360392  0.6227634759605181
  0.7431539518638033  0.4745445217897597  0.7282057442393111
  0.4687757549639926  0.7402553274449701  0.7276135801122905
  0.2767623037914149  0.5554113359701702  0.7271439229636414
  0.2836493517367984  0.7480006735794191  0.7279095410240615
  0.5078380116426331  0.0105106665557528  0.3011745438680364
  0.5078771303413774  0.5166694867512689  0.3009770714879423
  0.0129930677532784  0.5156773934126875  0.3014693063585554
  0.7851025777951364  0.4863055578481337  0.4077079923503604
  0.7062168394207617  0.4860717492434716  0.4077526668908860
  0.4817581323031632  0.7125659768292110  0.4066701917554880
  0.4814847686104287  0.7911592029269627  0.4078621730544754
  0.2358435011120719  0.5445052036552909  0.4064232393319500
  0.3147131506625911  0.5447606688734581  0.4068493360916605
  0.3137791215630372  0.7902561322855206  0.4074895425506426
  0.2352074519832001  0.7114184908113899  0.4074579736774098
  0.5311427483031892  0.0565799196321706  0.3883489780131910
  0.5460454957891869  0.2474619481110167  0.6409316595748606
  0.7774619324447372  0.3193745524835307  0.6417677714423675
  0.7059534299150130  0.4791691293699998  0.6408176041208407
  0.4736650446316304  0.7827536596424025  0.6408349699993323
  0.3143937207292566  0.5512516425749254  0.6398923950591424
  0.2419476828393243  0.7107509895502275  0.6404519892749008
  0.5306545483854777  0.4938098264804722  0.3885714615178699
  0.9677850371292820  0.4933030811774586  0.3894718191668787
  0.7052448874739810  0.2461030032590585  0.6378025656602375
  0.5448707956787118  0.3196459698065155  0.6369712929528717
  0.7793387183265565  0.4803580674142296  0.6377357169657145
  0.4748409944137677  0.7105974612969490  0.6366913945973138
  0.2409075111274817  0.5498900551455108  0.6365044140583223
  0.3139882637883034  0.7842267509894967  0.6374911088829123
  0.4886189977003426  0.9724861151267206  0.3923350567739021
  0.4891152351609449  0.5364323695580140  0.3917825073194265
  0.0519424570373701  0.5355983148414865  0.3919309515831415
 
  0.00000000E+00  0.00000000E+00  0.00000000E+00
  0.00000000E+00  0.00000000E+00  0.00000000E+00
  0.00000000E+00  0.00000000E+00  0.00000000E+00
  0.00000000E+00  0.00000000E+00  0.00000000E+00
  0.00000000E+00  0.00000000E+00  0.00000000E+00
  0.00000000E+00  0.00000000E+00  0.00000000E+00
  0.00000000E+00  0.00000000E+00  0.00000000E+00
  0.00000000E+00  0.00000000E+00  0.00000000E+00
  0.00000000E+00  0.00000000E+00  0.00000000E+00
  0.00000000E+00  0.00000000E+00  0.00000000E+00
  0.00000000E+00  0.00000000E+00  0.00000000E+00
  0.00000000E+00  0.00000000E+00  0.00000000E+00
  0.00000000E+00  0.00000000E+00  0.00000000E+00
  0.00000000E+00  0.00000000E+00  0.00000000E+00
  0.00000000E+00  0.00000000E+00  0.00000000E+00
  0.00000000E+00  0.00000000E+00  0.00000000E+00
  0.00000000E+00  0.00000000E+00  0.00000000E+00
  0.00000000E+00  0.00000000E+00  0.00000000E+00
  0.00000000E+00  0.00000000E+00  0.00000000E+00
  0.00000000E+00  0.00000000E+00  0.00000000E+00
  0.00000000E+00  0.00000000E+00  0.00000000E+00
  0.00000000E+00  0.00000000E+00  0.00000000E+00
  0.00000000E+00  0.00000000E+00  0.00000000E+00
  0.00000000E+00  0.00000000E+00  0.00000000E+00
  0.00000000E+00  0.00000000E+00  0.00000000E+00
  0.00000000E+00  0.00000000E+00  0.00000000E+00
  0.00000000E+00  0.00000000E+00  0.00000000E+00
  0.00000000E+00  0.00000000E+00  0.00000000E+00
  0.00000000E+00  0.00000000E+00  0.00000000E+00
  0.00000000E+00  0.00000000E+00  0.00000000E+00
  0.00000000E+00  0.00000000E+00  0.00000000E+00
  0.00000000E+00  0.00000000E+00  0.00000000E+00
  0.00000000E+00  0.00000000E+00  0.00000000E+00
  0.00000000E+00  0.00000000E+00  0.00000000E+00
  0.00000000E+00  0.00000000E+00  0.00000000E+00
  0.00000000E+00  0.00000000E+00  0.00000000E+00
  0.00000000E+00  0.00000000E+00  0.00000000E+00
  0.00000000E+00  0.00000000E+00  0.00000000E+00
  0.00000000E+00  0.00000000E+00  0.00000000E+00
  0.00000000E+00  0.00000000E+00  0.00000000E+00
  0.00000000E+00  0.00000000E+00  0.00000000E+00
  0.00000000E+00  0.00000000E+00  0.00000000E+00
  0.00000000E+00  0.00000000E+00  0.00000000E+00
  0.00000000E+00  0.00000000E+00  0.00000000E+00
  0.00000000E+00  0.00000000E+00  0.00000000E+00
  0.00000000E+00  0.00000000E+00  0.00000000E+00
  0.00000000E+00  0.00000000E+00  0.00000000E+00
  0.00000000E+00  0.00000000E+00  0.00000000E+00
  0.00000000E+00  0.00000000E+00  0.00000000E+00
  0.00000000E+00  0.00000000E+00  0.00000000E+00
  0.00000000E+00  0.00000000E+00  0.00000000E+00
  0.00000000E+00  0.00000000E+00  0.00000000E+00
  0.00000000E+00  0.00000000E+00  0.00000000E+00
  0.00000000E+00  0.00000000E+00  0.00000000E+00
  0.00000000E+00  0.00000000E+00  0.00000000E+00
  0.00000000E+00  0.00000000E+00  0.00000000E+00
  0.00000000E+00  0.00000000E+00  0.00000000E+00
  0.00000000E+00  0.00000000E+00  0.00000000E+00
  0.00000000E+00  0.00000000E+00  0.00000000E+00
  0.00000000E+00  0.00000000E+00  0.00000000E+00
  0.00000000E+00  0.00000000E+00  0.00000000E+00
  0.00000000E+00  0.00000000E+00  0.00000000E+00
  0.00000000E+00  0.00000000E+00  0.00000000E+00
  0.00000000E+00  0.00000000E+00  0.00000000E+00
  0.00000000E+00  0.00000000E+00  0.00000000E+00
  0.00000000E+00  0.00000000E+00  0.00000000E+00
  0.00000000E+00  0.00000000E+00  0.00000000E+00
  0.00000000E+00  0.00000000E+00  0.00000000E+00
  0.00000000E+00  0.00000000E+00  0.00000000E+00
  0.00000000E+00  0.00000000E+00  0.00000000E+00
  0.00000000E+00  0.00000000E+00  0.00000000E+00
  0.00000000E+00  0.00000000E+00  0.00000000E+00
  0.00000000E+00  0.00000000E+00  0.00000000E+00
  0.00000000E+00  0.00000000E+00  0.00000000E+00
  0.00000000E+00  0.00000000E+00  0.00000000E+00
  0.00000000E+00  0.00000000E+00  0.00000000E+00
  0.00000000E+00  0.00000000E+00  0.00000000E+00
  0.00000000E+00  0.00000000E+00  0.00000000E+00
  0.00000000E+00  0.00000000E+00  0.00000000E+00
  0.00000000E+00  0.00000000E+00  0.00000000E+00
  0.00000000E+00  0.00000000E+00  0.00000000E+00
  0.00000000E+00  0.00000000E+00  0.00000000E+00
  0.00000000E+00  0.00000000E+00  0.00000000E+00
  0.00000000E+00  0.00000000E+00  0.00000000E+00
  0.00000000E+00  0.00000000E+00  0.00000000E+00
  0.00000000E+00  0.00000000E+00  0.00000000E+00
  0.00000000E+00  0.00000000E+00  0.00000000E+00
  0.00000000E+00  0.00000000E+00  0.00000000E+00
  0.00000000E+00  0.00000000E+00  0.00000000E+00
  0.00000000E+00  0.00000000E+00  0.00000000E+00
  0.00000000E+00  0.00000000E+00  0.00000000E+00
  0.00000000E+00  0.00000000E+00  0.00000000E+00
  0.00000000E+00  0.00000000E+00  0.00000000E+00
  0.00000000E+00  0.00000000E+00  0.00000000E+00
  0.00000000E+00  0.00000000E+00  0.00000000E+00
  0.00000000E+00  0.00000000E+00  0.00000000E+00
  0.00000000E+00  0.00000000E+00  0.00000000E+00
  0.00000000E+00  0.00000000E+00  0.00000000E+00
  0.00000000E+00  0.00000000E+00  0.00000000E+00
  0.00000000E+00  0.00000000E+00  0.00000000E+00
  0.00000000E+00  0.00000000E+00  0.00000000E+00
  0.00000000E+00  0.00000000E+00  0.00000000E+00
  0.00000000E+00  0.00000000E+00  0.00000000E+00
  0.00000000E+00  0.00000000E+00  0.00000000E+00
  0.00000000E+00  0.00000000E+00  0.00000000E+00
  0.00000000E+00  0.00000000E+00  0.00000000E+00
  0.00000000E+00  0.00000000E+00  0.00000000E+00
  0.00000000E+00  0.00000000E+00  0.00000000E+00
  0.00000000E+00  0.00000000E+00  0.00000000E+00
  0.00000000E+00  0.00000000E+00  0.00000000E+00
  0.00000000E+00  0.00000000E+00  0.00000000E+00
  0.00000000E+00  0.00000000E+00  0.00000000E+00
  0.00000000E+00  0.00000000E+00  0.00000000E+00
  0.00000000E+00  0.00000000E+00  0.00000000E+00
  0.00000000E+00  0.00000000E+00  0.00000000E+00
  0.00000000E+00  0.00000000E+00  0.00000000E+00
  0.00000000E+00  0.00000000E+00  0.00000000E+00
  0.00000000E+00  0.00000000E+00  0.00000000E+00
  0.00000000E+00  0.00000000E+00  0.00000000E+00
  0.00000000E+00  0.00000000E+00  0.00000000E+00
  0.00000000E+00  0.00000000E+00  0.00000000E+00
  0.00000000E+00  0.00000000E+00  0.00000000E+00
  0.00000000E+00  0.00000000E+00  0.00000000E+00
  0.00000000E+00  0.00000000E+00  0.00000000E+00
  0.00000000E+00  0.00000000E+00  0.00000000E+00
  0.00000000E+00  0.00000000E+00  0.00000000E+00
  0.00000000E+00  0.00000000E+00  0.00000000E+00
  0.00000000E+00  0.00000000E+00  0.00000000E+00
  0.00000000E+00  0.00000000E+00  0.00000000E+00
  0.00000000E+00  0.00000000E+00  0.00000000E+00
  0.00000000E+00  0.00000000E+00  0.00000000E+00
  0.00000000E+00  0.00000000E+00  0.00000000E+00
  0.00000000E+00  0.00000000E+00  0.00000000E+00
  0.00000000E+00  0.00000000E+00  0.00000000E+00
  0.00000000E+00  0.00000000E+00  0.00000000E+00
  0.00000000E+00  0.00000000E+00  0.00000000E+00
  0.00000000E+00  0.00000000E+00  0.00000000E+00
  0.00000000E+00  0.00000000E+00  0.00000000E+00
  0.00000000E+00  0.00000000E+00  0.00000000E+00
  0.00000000E+00  0.00000000E+00  0.00000000E+00
  0.00000000E+00  0.00000000E+00  0.00000000E+00
  0.00000000E+00  0.00000000E+00  0.00000000E+00
  0.00000000E+00  0.00000000E+00  0.00000000E+00
  0.00000000E+00  0.00000000E+00  0.00000000E+00
  0.00000000E+00  0.00000000E+00  0.00000000E+00
  0.00000000E+00  0.00000000E+00  0.00000000E+00
  0.00000000E+00  0.00000000E+00  0.00000000E+00
  0.00000000E+00  0.00000000E+00  0.00000000E+00
  0.00000000E+00  0.00000000E+00  0.00000000E+00
  0.00000000E+00  0.00000000E+00  0.00000000E+00
  0.00000000E+00  0.00000000E+00  0.00000000E+00
  0.00000000E+00  0.00000000E+00  0.00000000E+00
  0.00000000E+00  0.00000000E+00  0.00000000E+00
  0.00000000E+00  0.00000000E+00  0.00000000E+00
  0.00000000E+00  0.00000000E+00  0.00000000E+00
  0.00000000E+00  0.00000000E+00  0.00000000E+00
  0.00000000E+00  0.00000000E+00  0.00000000E+00
  0.00000000E+00  0.00000000E+00  0.00000000E+00
  0.00000000E+00  0.00000000E+00  0.00000000E+00
  0.00000000E+00  0.00000000E+00  0.00000000E+00
  0.00000000E+00  0.00000000E+00  0.00000000E+00
  0.00000000E+00  0.00000000E+00  0.00000000E+00
