Primitive Cell                          
   1.00000000000000     
    22.1690273466502212   -0.0067149555175855    0.0000000000000000
   -11.0903339977870878   19.1550599831875346    0.0000000000000000
     0.0000000000000000    0.0000000000000000   20.0000000000000000
   H    C    N 
    30    30    24
Direct
  0.5382339868638581  0.2213600584326088  0.5225219601722131
  0.8406946392808052  0.3669389916119243  0.5215845754451891
  0.6955231595601745  0.5246641221502628  0.5223305274534482
  0.3843574602939057  0.4369516948746863  0.6102665423768272
  0.3700911537623952  0.5019379783839497  0.5885943131079614
  0.4875597713576383  0.3761022768873374  0.5524367360088149
  0.4077157892900019  0.3687485734633853  0.5493362813790341
  0.6859766989079930  0.1615075145394584  0.5536118808067982
  0.6932419402358718  0.0888854245533466  0.5505093924344280
  0.1481506060079170  0.4998509826459312  0.4856792679622473
  0.0753006665315397  0.4199484707763972  0.4884366064932451
  0.9046111389779057  0.3837760832691401  0.4489242046469073
  0.9836072265552858  0.3975263608527726  0.4272053087192162
  0.4910018622142616  0.1574030506601858  0.4496447792020319
  0.4259979170889636  0.0781404098200227  0.4276695368559231
  0.5117331315206854  0.8533455498589362  0.5174049485211825
  0.2090000348124903  0.7078969722558384  0.5173638077555864
  0.3539204159403795  0.5500756642275846  0.5164462899179796
  0.0662715176864594  0.6775320667565836  0.6123484690177889
  0.1452883196696533  0.6913896169498344  0.5905429422378035
  0.9017442241557916  0.5750328983317488  0.5541935194807763
  0.9746017817580324  0.6549235933200066  0.5513377882140844
  0.5617618287774917  0.6982931455452572  0.4855437837947321
  0.6416805084971955  0.7057480867560457  0.4886943527579106
  0.6792112741830394  0.5722852937607357  0.4496240695931490
  0.6651666688030105  0.6373747547165038  0.4278533671692557
  0.6249108559323844  0.9968769507323643  0.6111091486601055
  0.5596071378906657  0.9175855990987927  0.5896350027405504
  0.3641576080688083  0.9133430067752712  0.4861666969368059
  0.3570488649096646  0.9861369927119057  0.4887204613677909
  0.7582830079479734  0.3916178656106268  0.5131790298145305
  0.6453093513888462  0.3043763065816307  0.5133077504018075
  0.6713163408366398  0.4174627805831577  0.5134361637427958
  0.6512586923691828  0.4714184520661675  0.5153764650112365
  0.8322022084430216  0.4115179983583701  0.5152473396274431
  0.5913449718592716  0.2302509486852529  0.5156543563425160
  0.5604500619569635  0.4992310751893569  0.5159915821763192
  0.4903301335984693  0.4671544087422603  0.5400523095477539
  0.4548876197933893  0.5045520935606618  0.5445689408295209
  0.9511838342552750  0.5020170388506102  0.5167623934927761
  0.5632388782915214  0.1113272744285752  0.5168002797181899
  0.5950255755005855  0.0731001234126438  0.5410966905306651
  0.0601674275031598  0.5028635214587922  0.4984288542760495
  0.9873039069806850  0.4677845781891676  0.4937092398102507
  0.4927789320631391  0.0747801831053536  0.4939572416317262
  0.2915769496927183  0.6833872063878843  0.5258731930764640
  0.4045888659341728  0.7704760128711925  0.5261948351075532
  0.3784142748644612  0.6573320307447972  0.5254881705400294
  0.3983105327622312  0.6032809923444020  0.5232151425573761
  0.2176184933035685  0.6634225955119675  0.5239956877802214
  0.4586640552347987  0.8445740253099672  0.5242283549880611
  0.9897047495991842  0.5720124649871323  0.5414394228704751
  0.0625761102450824  0.6071428194261088  0.5460356980610470
  0.4889629419583486  0.5752405130573877  0.5220374614252066
  0.5590889523540241  0.6073053080166702  0.4979392339211515
  0.5945188693661905  0.5699012112108548  0.4935020734147813
  0.0986834585244623  0.5728663292597034  0.5230731703141842
  0.5574922102204738  0.0001101098621774  0.5455711537539472
  0.4869398413289829  0.9635658058962449  0.5230153426480939
  0.4551829049552580  0.0017856579274778  0.4985946223994091
  0.7131893498622688  0.3223771936237867  0.5126829115966345
  0.6212608760434080  0.3494349695313730  0.5133776730660031
  0.7404646245782658  0.4416943619116864  0.5133647835032988
  0.3880700409607059  0.4701476297935727  0.5729511175109536
  0.4583178880413357  0.3986448068413324  0.5640902805023984
  0.5864229206081575  0.4545500144442229  0.5139013179850878
  0.8806071864396898  0.4763875613667921  0.5146279630835906
  0.6633926503743623  0.1096063828891900  0.5652387961553487
  0.6080177668875280  0.1820870080588364  0.5146243361916376
  0.0963089090470888  0.4707473202881474  0.4740704479567981
  0.9542485592768202  0.4011636525005713  0.4646423377279447
  0.4589194324073063  0.1075526084698808  0.4651955217512480
  0.3367370164951922  0.7526255684143521  0.5264773266880312
  0.4285315238432190  0.7253236296122836  0.5260524346020787
  0.3093095934207568  0.6332578314655208  0.5254327088422599
  0.0956048509437863  0.6738754013835759  0.5749016841489265
  0.9535824285485432  0.6041449765609670  0.5658134005693043
  0.5910841030383978  0.6758277117951081  0.4739609630509136
  0.6614103796813993  0.6042310640709871  0.4652564627001539
  0.4631294902373853  0.6200256623783318  0.5242178076774664
  0.1692933410396691  0.5985285781350171  0.5251665378088859
  0.4420940044030957  0.8928101455802278  0.5253442020630459
  0.5915865479270366  0.9673749564520762  0.5738666047056142
  0.3868421732282599  0.9652210480767138  0.4744372870710194
 
  0.00000000E+00  0.00000000E+00  0.00000000E+00
  0.00000000E+00  0.00000000E+00  0.00000000E+00
  0.00000000E+00  0.00000000E+00  0.00000000E+00
  0.00000000E+00  0.00000000E+00  0.00000000E+00
  0.00000000E+00  0.00000000E+00  0.00000000E+00
  0.00000000E+00  0.00000000E+00  0.00000000E+00
  0.00000000E+00  0.00000000E+00  0.00000000E+00
  0.00000000E+00  0.00000000E+00  0.00000000E+00
  0.00000000E+00  0.00000000E+00  0.00000000E+00
  0.00000000E+00  0.00000000E+00  0.00000000E+00
  0.00000000E+00  0.00000000E+00  0.00000000E+00
  0.00000000E+00  0.00000000E+00  0.00000000E+00
  0.00000000E+00  0.00000000E+00  0.00000000E+00
  0.00000000E+00  0.00000000E+00  0.00000000E+00
  0.00000000E+00  0.00000000E+00  0.00000000E+00
  0.00000000E+00  0.00000000E+00  0.00000000E+00
  0.00000000E+00  0.00000000E+00  0.00000000E+00
  0.00000000E+00  0.00000000E+00  0.00000000E+00
  0.00000000E+00  0.00000000E+00  0.00000000E+00
  0.00000000E+00  0.00000000E+00  0.00000000E+00
  0.00000000E+00  0.00000000E+00  0.00000000E+00
  0.00000000E+00  0.00000000E+00  0.00000000E+00
  0.00000000E+00  0.00000000E+00  0.00000000E+00
  0.00000000E+00  0.00000000E+00  0.00000000E+00
  0.00000000E+00  0.00000000E+00  0.00000000E+00
  0.00000000E+00  0.00000000E+00  0.00000000E+00
  0.00000000E+00  0.00000000E+00  0.00000000E+00
  0.00000000E+00  0.00000000E+00  0.00000000E+00
  0.00000000E+00  0.00000000E+00  0.00000000E+00
  0.00000000E+00  0.00000000E+00  0.00000000E+00
  0.00000000E+00  0.00000000E+00  0.00000000E+00
  0.00000000E+00  0.00000000E+00  0.00000000E+00
  0.00000000E+00  0.00000000E+00  0.00000000E+00
  0.00000000E+00  0.00000000E+00  0.00000000E+00
  0.00000000E+00  0.00000000E+00  0.00000000E+00
  0.00000000E+00  0.00000000E+00  0.00000000E+00
  0.00000000E+00  0.00000000E+00  0.00000000E+00
  0.00000000E+00  0.00000000E+00  0.00000000E+00
  0.00000000E+00  0.00000000E+00  0.00000000E+00
  0.00000000E+00  0.00000000E+00  0.00000000E+00
  0.00000000E+00  0.00000000E+00  0.00000000E+00
  0.00000000E+00  0.00000000E+00  0.00000000E+00
  0.00000000E+00  0.00000000E+00  0.00000000E+00
  0.00000000E+00  0.00000000E+00  0.00000000E+00
  0.00000000E+00  0.00000000E+00  0.00000000E+00
  0.00000000E+00  0.00000000E+00  0.00000000E+00
  0.00000000E+00  0.00000000E+00  0.00000000E+00
  0.00000000E+00  0.00000000E+00  0.00000000E+00
  0.00000000E+00  0.00000000E+00  0.00000000E+00
  0.00000000E+00  0.00000000E+00  0.00000000E+00
  0.00000000E+00  0.00000000E+00  0.00000000E+00
  0.00000000E+00  0.00000000E+00  0.00000000E+00
  0.00000000E+00  0.00000000E+00  0.00000000E+00
  0.00000000E+00  0.00000000E+00  0.00000000E+00
  0.00000000E+00  0.00000000E+00  0.00000000E+00
  0.00000000E+00  0.00000000E+00  0.00000000E+00
  0.00000000E+00  0.00000000E+00  0.00000000E+00
  0.00000000E+00  0.00000000E+00  0.00000000E+00
  0.00000000E+00  0.00000000E+00  0.00000000E+00
  0.00000000E+00  0.00000000E+00  0.00000000E+00
  0.00000000E+00  0.00000000E+00  0.00000000E+00
  0.00000000E+00  0.00000000E+00  0.00000000E+00
  0.00000000E+00  0.00000000E+00  0.00000000E+00
  0.00000000E+00  0.00000000E+00  0.00000000E+00
  0.00000000E+00  0.00000000E+00  0.00000000E+00
  0.00000000E+00  0.00000000E+00  0.00000000E+00
  0.00000000E+00  0.00000000E+00  0.00000000E+00
  0.00000000E+00  0.00000000E+00  0.00000000E+00
  0.00000000E+00  0.00000000E+00  0.00000000E+00
  0.00000000E+00  0.00000000E+00  0.00000000E+00
  0.00000000E+00  0.00000000E+00  0.00000000E+00
  0.00000000E+00  0.00000000E+00  0.00000000E+00
  0.00000000E+00  0.00000000E+00  0.00000000E+00
  0.00000000E+00  0.00000000E+00  0.00000000E+00
  0.00000000E+00  0.00000000E+00  0.00000000E+00
  0.00000000E+00  0.00000000E+00  0.00000000E+00
  0.00000000E+00  0.00000000E+00  0.00000000E+00
  0.00000000E+00  0.00000000E+00  0.00000000E+00
  0.00000000E+00  0.00000000E+00  0.00000000E+00
  0.00000000E+00  0.00000000E+00  0.00000000E+00
  0.00000000E+00  0.00000000E+00  0.00000000E+00
  0.00000000E+00  0.00000000E+00  0.00000000E+00
  0.00000000E+00  0.00000000E+00  0.00000000E+00
  0.00000000E+00  0.00000000E+00  0.00000000E+00
