Primitive Cell                          
   1.00000000000000     
    30.3153907573365622    0.1556706563164288    0.0000000000000000
   -15.0202842006187751   25.7783022520592482    0.0000000000000000
     0.0000000000000000    0.0000000000000000   20.0000000000000000
   H    C    N 
    72    90    18
Direct
  0.3717268510668674  0.4351676543782332  0.3840390416079487
  0.4010410768387516  0.4988959688337857  0.3512128026859358
  0.4201511458123406  0.4540047826568170  0.3231591086194143
  0.3554838375113505  0.4845828174707236  0.4652895076237513
  0.4986569789284800  0.6269411088805228  0.4841929110699112
  0.2627842676181871  0.4407246589082163  0.4025820178602544
  0.4355483095390440  0.6475213478780333  0.6399732563552334
  0.3576582761956715  0.6250164419242523  0.5187225306025525
  0.5334172267126007  0.7889784292424480  0.3797666077282500
  0.2402967786335068  0.4707070051540256  0.3454165362993251
  0.3065678683848105  0.5005544339321588  0.3656506996426998
  0.3827295034448852  0.6577070189208882  0.6436693068400174
  0.4414373082423282  0.7041897010338261  0.6794042719243407
  0.5046506819008911  0.8878496910319527  0.4788833220518640
  0.3639113347964837  0.8906174977427455  0.4671280146681198
  0.3625821440804060  0.7512955795190166  0.5247681579154815
  0.1054312389082028  0.6373386463112780  0.4621539939669930
  0.1043765855436902  0.4922551167418732  0.4542898983484065
  0.2415392237799381  0.6319502857815564  0.5061287741356892
  0.6164993001047279  0.5168910623949614  0.4648200067684911
  0.4740273206188306  0.3728280576007421  0.4667413678419052
  0.6151904785126234  0.3745624235250276  0.5014315553311093
  0.4842330759877740  0.1145119563799497  0.4663986841870980
  0.6316434538537905  0.1257082426808083  0.4626066271796603
  0.6192364080485930  0.2590190175595737  0.5115668338082102
  0.8838052525289015  0.3859639470716374  0.4647364622771590
  0.8719206764044714  0.5240908982962935  0.4570898790418525
  0.7415480835303114  0.3789181737785512  0.5093859590700660
  0.4230369268615704  0.9873187909404493  0.3284107059243340
  0.4017913017129828  0.9222275474670596  0.3549096711337114
  0.3790745154133930  0.9598405856488412  0.3949304173430548
  0.0712901305927147  0.4988393349766511  0.3413011432350217
  0.0356535043421857  0.4376579620901921  0.3805327741621838
  0.0070366989919606  0.4549030987124141  0.3160368127187567
  0.5545398197025335  0.8410004910217950  0.4380259953825458
  0.5007393125883866  0.8248428556763159  0.3875705045363631
  0.1590322523704870  0.7394511731745226  0.4079463216368069
  0.2122969624086153  0.7635789552681871  0.3529028587270062
  0.1728006701764002  0.6954278123075142  0.3666473010713034
  0.4335290463077044  0.1619275932831812  0.4036524715248078
  0.4627312826381811  0.2144088518814442  0.3460982050655943
  0.4927319065191824  0.1775773237150133  0.3675563746399888
  0.8329295989693577  0.2811011015221325  0.4101241071050339
  0.7815380354716197  0.2581637539116883  0.3520938618242511
  0.8197807622803239  0.3258772829648251  0.3698324360859075
  0.7110883143192694  0.5644399216133138  0.4005391787859054
  0.7353299560663871  0.5358691364311170  0.3439624671092574
  0.6685903669596840  0.5047499850964741  0.3620968808506149
  0.6033469516913641  0.5673008258174690  0.5444306435480613
  0.5552558137109003  0.5532948396885331  0.6045045437696288
  0.5722323804949667  0.5055150341432366  0.5825602096432263
  0.5968581627344420  0.0796049473826770  0.5683384207618190
  0.5830565525816525  0.0139485730252247  0.5757793452654241
  0.6234587517076235  0.0543293403855714  0.5111869079216333
  0.9173140194381517  0.5318749542151622  0.5655602140938996
  0.9817517991864761  0.5835377833396365  0.5743901179290489
  0.9415667775569005  0.5863668883024928  0.5121120884985970
  0.3211382018922890  0.7443213090153691  0.6415600830860981
  0.3338741705914785  0.8088385507466853  0.6319818024836863
  0.2746755373038425  0.7602954185436346  0.6668110033832946
  0.2348819346083388  0.5943449555583626  0.6275065735608365
  0.1749882753609668  0.5376577592149161  0.6170969289538135
  0.2260910501556026  0.5346030799026522  0.6580598449139146
  0.5799954376262875  0.3463872045112311  0.6278095211921055
  0.5201697416863880  0.3430941665970622  0.6217255127337253
  0.5251792093704921  0.2916319371467750  0.6605700948522326
  0.6572952791312403  0.2646955849902213  0.6317475989920069
  0.6515048133295096  0.2027690033262601  0.6252504599980853
  0.7066565897700059  0.2552340207721571  0.6634212900888414
  0.7369948763351815  0.4108270474002609  0.6272718304939602
  0.7957044133906237  0.4694945857934343  0.6212220205512153
  0.7413192784196951  0.4686540097642435  0.6579093005774510
  0.4081200917030188  0.4677256351550483  0.3665599938445823
  0.4484528678380997  0.4852932747801262  0.4198138347156686
  0.4592089277651112  0.5255960693253101  0.4657529616653662
  0.4313677088543884  0.6328968840905063  0.5016891602412059
  0.3781886328479871  0.6049288890869491  0.5054669170270998
  0.3500781865017188  0.5520133879038056  0.4908913659864567
  0.3764095231858846  0.5262082663307197  0.4738105277272595
  0.4299604190910458  0.5530928135054083  0.4726769351315951
  0.4571975382779314  0.6066038627472423  0.4853216728432201
  0.2940208214022206  0.5299113367541324  0.4954362210118859
  0.2591990059133238  0.5061858106014441  0.4418572091022028
  0.2676697995156090  0.4780492068606748  0.3856046163616114
  0.4243148384237827  0.6771776895314403  0.6373987678147657
  0.4404616912164272  0.7065359302394043  0.5726259392400408
  0.4546253815608239  0.6891564223960813  0.5147972517515242
  0.3570470539652177  0.8178594382757254  0.4959497369252688
  0.3836063029885892  0.7917285890425703  0.5093999623810390
  0.4365142614278170  0.8152995028266190  0.5015508124134840
  0.4632819098101422  0.8671617679884420  0.4823409744072009
  0.4376228668388435  0.8949295273682409  0.4706604196836111
  0.3843129645023495  0.8697033531927616  0.4757408414230468
  0.1762205152492200  0.5590046093625176  0.4796581385376584
  0.2016209168328018  0.6123542161185469  0.4911532775849707
  0.1776285015798393  0.6418046608136336  0.4830345021981444
  0.1262716008754907  0.6163988902300801  0.4653568155841015
  0.0993814877242869  0.5624104606819174  0.4556341722481321
  0.1248870228575925  0.5340843963982280  0.4609394594598797
  0.5415949631999410  0.3667794691364392  0.4834701688820573
  0.5946341202780019  0.3950084391350188  0.4901877047806806
  0.6224319702226495  0.4487308601961644  0.4820272194247792
  0.5958522780201321  0.4749308551467237  0.4699218390507767
  0.5423930875208143  0.4478226857693883  0.4670043174997289
  0.5154127445143217  0.3934974541613911  0.4710197872267585
  0.6316631290062915  0.1956627703575151  0.4880272697590584
  0.6013549881768441  0.2182825138005811  0.4977256466685205
  0.5484824084337490  0.1905198115180653  0.4878433787986509
  0.5254056331576678  0.1379536072075140  0.4720746072478477
  0.5548350293247069  0.1135667278970587  0.4663694575935935
  0.6081060850515101  0.1432342198660450  0.4711960579902410
  0.8032931428954768  0.4543777659201922  0.4840555686871113
  0.7815751694828990  0.4013195177293554  0.4953271294747665
  0.8089680458509818  0.3752966731546010  0.4868216258533167
  0.8605188804308668  0.4042114504841408  0.4699103999643839
  0.8839933466476566  0.4583212637936214  0.4623559394590657
  0.8547208904028807  0.4827901802961065  0.4666416964480220
  0.4127742603304227  0.9614288984819979  0.3717094644820733
  0.4568848757154740  0.9826079679897433  0.4196148597465807
  0.4691569608586406  0.9516579156835618  0.4606664527854747
  0.0331413331613817  0.4702151946683699  0.3587368165070046
  0.0124660526628091  0.4927456302298481  0.4086446771154897
  0.0431774140051147  0.5364658155971540  0.4489270049597209
  0.4577740672732702  0.7806426447692374  0.5137209727945944
  0.4870541179961094  0.7704663444281721  0.4669888835396421
  0.5207751629681638  0.8083736815668559  0.4150555219821470
  0.2110070939979067  0.6981249722932859  0.4956137391139919
  0.2242985532911632  0.7376737086010650  0.4471418804892906
  0.1903238961763449  0.7337974159322371  0.3902832345888640
  0.5229737688088818  0.2218938824566550  0.4951841770256138
  0.4970265034905523  0.2314651977451661  0.4428661265605314
  0.4701732771904332  0.1944014353114270  0.3867082217254065
  0.7770766344869884  0.3184249000606485  0.4968845159933366
  0.7658226901797747  0.2805456828743758  0.4466167077215815
  0.8019022672453104  0.2867746513114611  0.3913866415956733
  0.6783938838683241  0.4723040256999766  0.4901654583203481
  0.7151429521926005  0.4992944271177748  0.4396728976221738
  0.7070445374951291  0.5275239155583122  0.3832328672888821
  0.5143553864766517  0.4767752429392047  0.4651425105125711
  0.5259089754470452  0.5179663391415446  0.5102500579251199
  0.5664326837684115  0.5366687316380805  0.5634640685088002
  0.5280818439311261  0.0564224641578832  0.4600966413695176
  0.5426888905527818  0.0251148090703737  0.4968629723171034
  0.5891443678576707  0.0446804707458170  0.5405803231744386
  0.9400702384045090  0.4888266926369269  0.4542633712635578
  0.9708925093878094  0.5347574198717879  0.4912407114844015
  0.9514675632578715  0.5602388980145179  0.5385827880881138
  0.3039301719977345  0.7681468787335746  0.6289488857005239
  0.2798016692940877  0.7547682950431494  0.5608628845763093
  0.3009806360857823  0.7859561290489765  0.5031290576224521
  0.2161834915392831  0.5525667233024407  0.6172024786809587
  0.2340014290352812  0.5422503833735348  0.5519075952323718
  0.2076889213487050  0.5342073650587480  0.4904564244408931
  0.5390542805289229  0.3199013633452452  0.6196154796130386
  0.5298484234498702  0.2922403758152683  0.5538803145836084
  0.5195635241688734  0.3100742223602637  0.4933069463963164
  0.6787116796108421  0.2443995624016395  0.6228970501459941
  0.7058851307740142  0.2595942417123283  0.5568135240707193
  0.6872791200791397  0.2300130110655800  0.4974363964185358
  0.7542845526346085  0.4526305481407036  0.6180497496856461
  0.7383334549040086  0.4630272932482740  0.5513515868908598
  0.7680089072613043  0.4748654384634960  0.4922953288552563
  0.4980355123246980  0.5412862187628065  0.5091829174676832
  0.4818200076108781  0.7230963029482567  0.4667307446486006
  0.2783539198767500  0.5430010845820803  0.5511016749640447
  0.4760030566528641  0.4613999430562998  0.4211941061689828
  0.4860907811437869  0.0342434042930151  0.4216662381510687
  0.9616287163863930  0.4694829210436779  0.4133609015353770
  0.2709450241283804  0.7794225767018617  0.4505081970255418
  0.2180969598819544  0.5120346622386194  0.4392192805640249
  0.4992073270321953  0.2775288443816422  0.4416748879423551
  0.7193308412182944  0.2383634156499639  0.4466270001754253
  0.7582108548593993  0.4969573167598682  0.4404295436935044
  0.5124060536426072  0.9738329387663569  0.4966096455810813
  0.0215019102364309  0.5568965365299192  0.4878254288360679
  0.4395133814394683  0.7506497755960524  0.5682251550947228
  0.2367547675404893  0.7097443131518375  0.5534623376634400
  0.5344864512562637  0.2500922767298022  0.5514226687007806
  0.7491621598571854  0.3047901599698974  0.5530694594455099
  0.6925472980580238  0.4589086010375567  0.5468565756791008
 
  0.00000000E+00  0.00000000E+00  0.00000000E+00
  0.00000000E+00  0.00000000E+00  0.00000000E+00
  0.00000000E+00  0.00000000E+00  0.00000000E+00
  0.00000000E+00  0.00000000E+00  0.00000000E+00
  0.00000000E+00  0.00000000E+00  0.00000000E+00
  0.00000000E+00  0.00000000E+00  0.00000000E+00
  0.00000000E+00  0.00000000E+00  0.00000000E+00
  0.00000000E+00  0.00000000E+00  0.00000000E+00
  0.00000000E+00  0.00000000E+00  0.00000000E+00
  0.00000000E+00  0.00000000E+00  0.00000000E+00
  0.00000000E+00  0.00000000E+00  0.00000000E+00
  0.00000000E+00  0.00000000E+00  0.00000000E+00
  0.00000000E+00  0.00000000E+00  0.00000000E+00
  0.00000000E+00  0.00000000E+00  0.00000000E+00
  0.00000000E+00  0.00000000E+00  0.00000000E+00
  0.00000000E+00  0.00000000E+00  0.00000000E+00
  0.00000000E+00  0.00000000E+00  0.00000000E+00
  0.00000000E+00  0.00000000E+00  0.00000000E+00
  0.00000000E+00  0.00000000E+00  0.00000000E+00
  0.00000000E+00  0.00000000E+00  0.00000000E+00
  0.00000000E+00  0.00000000E+00  0.00000000E+00
  0.00000000E+00  0.00000000E+00  0.00000000E+00
  0.00000000E+00  0.00000000E+00  0.00000000E+00
  0.00000000E+00  0.00000000E+00  0.00000000E+00
  0.00000000E+00  0.00000000E+00  0.00000000E+00
  0.00000000E+00  0.00000000E+00  0.00000000E+00
  0.00000000E+00  0.00000000E+00  0.00000000E+00
  0.00000000E+00  0.00000000E+00  0.00000000E+00
  0.00000000E+00  0.00000000E+00  0.00000000E+00
  0.00000000E+00  0.00000000E+00  0.00000000E+00
  0.00000000E+00  0.00000000E+00  0.00000000E+00
  0.00000000E+00  0.00000000E+00  0.00000000E+00
  0.00000000E+00  0.00000000E+00  0.00000000E+00
  0.00000000E+00  0.00000000E+00  0.00000000E+00
  0.00000000E+00  0.00000000E+00  0.00000000E+00
  0.00000000E+00  0.00000000E+00  0.00000000E+00
  0.00000000E+00  0.00000000E+00  0.00000000E+00
  0.00000000E+00  0.00000000E+00  0.00000000E+00
  0.00000000E+00  0.00000000E+00  0.00000000E+00
  0.00000000E+00  0.00000000E+00  0.00000000E+00
  0.00000000E+00  0.00000000E+00  0.00000000E+00
  0.00000000E+00  0.00000000E+00  0.00000000E+00
  0.00000000E+00  0.00000000E+00  0.00000000E+00
  0.00000000E+00  0.00000000E+00  0.00000000E+00
  0.00000000E+00  0.00000000E+00  0.00000000E+00
  0.00000000E+00  0.00000000E+00  0.00000000E+00
  0.00000000E+00  0.00000000E+00  0.00000000E+00
  0.00000000E+00  0.00000000E+00  0.00000000E+00
  0.00000000E+00  0.00000000E+00  0.00000000E+00
  0.00000000E+00  0.00000000E+00  0.00000000E+00
  0.00000000E+00  0.00000000E+00  0.00000000E+00
  0.00000000E+00  0.00000000E+00  0.00000000E+00
  0.00000000E+00  0.00000000E+00  0.00000000E+00
  0.00000000E+00  0.00000000E+00  0.00000000E+00
  0.00000000E+00  0.00000000E+00  0.00000000E+00
  0.00000000E+00  0.00000000E+00  0.00000000E+00
  0.00000000E+00  0.00000000E+00  0.00000000E+00
  0.00000000E+00  0.00000000E+00  0.00000000E+00
  0.00000000E+00  0.00000000E+00  0.00000000E+00
  0.00000000E+00  0.00000000E+00  0.00000000E+00
  0.00000000E+00  0.00000000E+00  0.00000000E+00
  0.00000000E+00  0.00000000E+00  0.00000000E+00
  0.00000000E+00  0.00000000E+00  0.00000000E+00
  0.00000000E+00  0.00000000E+00  0.00000000E+00
  0.00000000E+00  0.00000000E+00  0.00000000E+00
  0.00000000E+00  0.00000000E+00  0.00000000E+00
  0.00000000E+00  0.00000000E+00  0.00000000E+00
  0.00000000E+00  0.00000000E+00  0.00000000E+00
  0.00000000E+00  0.00000000E+00  0.00000000E+00
  0.00000000E+00  0.00000000E+00  0.00000000E+00
  0.00000000E+00  0.00000000E+00  0.00000000E+00
  0.00000000E+00  0.00000000E+00  0.00000000E+00
  0.00000000E+00  0.00000000E+00  0.00000000E+00
  0.00000000E+00  0.00000000E+00  0.00000000E+00
  0.00000000E+00  0.00000000E+00  0.00000000E+00
  0.00000000E+00  0.00000000E+00  0.00000000E+00
  0.00000000E+00  0.00000000E+00  0.00000000E+00
  0.00000000E+00  0.00000000E+00  0.00000000E+00
  0.00000000E+00  0.00000000E+00  0.00000000E+00
  0.00000000E+00  0.00000000E+00  0.00000000E+00
  0.00000000E+00  0.00000000E+00  0.00000000E+00
  0.00000000E+00  0.00000000E+00  0.00000000E+00
  0.00000000E+00  0.00000000E+00  0.00000000E+00
  0.00000000E+00  0.00000000E+00  0.00000000E+00
  0.00000000E+00  0.00000000E+00  0.00000000E+00
  0.00000000E+00  0.00000000E+00  0.00000000E+00
  0.00000000E+00  0.00000000E+00  0.00000000E+00
  0.00000000E+00  0.00000000E+00  0.00000000E+00
  0.00000000E+00  0.00000000E+00  0.00000000E+00
  0.00000000E+00  0.00000000E+00  0.00000000E+00
  0.00000000E+00  0.00000000E+00  0.00000000E+00
  0.00000000E+00  0.00000000E+00  0.00000000E+00
  0.00000000E+00  0.00000000E+00  0.00000000E+00
  0.00000000E+00  0.00000000E+00  0.00000000E+00
  0.00000000E+00  0.00000000E+00  0.00000000E+00
  0.00000000E+00  0.00000000E+00  0.00000000E+00
  0.00000000E+00  0.00000000E+00  0.00000000E+00
  0.00000000E+00  0.00000000E+00  0.00000000E+00
  0.00000000E+00  0.00000000E+00  0.00000000E+00
  0.00000000E+00  0.00000000E+00  0.00000000E+00
  0.00000000E+00  0.00000000E+00  0.00000000E+00
  0.00000000E+00  0.00000000E+00  0.00000000E+00
  0.00000000E+00  0.00000000E+00  0.00000000E+00
  0.00000000E+00  0.00000000E+00  0.00000000E+00
  0.00000000E+00  0.00000000E+00  0.00000000E+00
  0.00000000E+00  0.00000000E+00  0.00000000E+00
  0.00000000E+00  0.00000000E+00  0.00000000E+00
  0.00000000E+00  0.00000000E+00  0.00000000E+00
  0.00000000E+00  0.00000000E+00  0.00000000E+00
  0.00000000E+00  0.00000000E+00  0.00000000E+00
  0.00000000E+00  0.00000000E+00  0.00000000E+00
  0.00000000E+00  0.00000000E+00  0.00000000E+00
  0.00000000E+00  0.00000000E+00  0.00000000E+00
  0.00000000E+00  0.00000000E+00  0.00000000E+00
  0.00000000E+00  0.00000000E+00  0.00000000E+00
  0.00000000E+00  0.00000000E+00  0.00000000E+00
  0.00000000E+00  0.00000000E+00  0.00000000E+00
  0.00000000E+00  0.00000000E+00  0.00000000E+00
  0.00000000E+00  0.00000000E+00  0.00000000E+00
  0.00000000E+00  0.00000000E+00  0.00000000E+00
  0.00000000E+00  0.00000000E+00  0.00000000E+00
  0.00000000E+00  0.00000000E+00  0.00000000E+00
  0.00000000E+00  0.00000000E+00  0.00000000E+00
  0.00000000E+00  0.00000000E+00  0.00000000E+00
  0.00000000E+00  0.00000000E+00  0.00000000E+00
  0.00000000E+00  0.00000000E+00  0.00000000E+00
  0.00000000E+00  0.00000000E+00  0.00000000E+00
  0.00000000E+00  0.00000000E+00  0.00000000E+00
  0.00000000E+00  0.00000000E+00  0.00000000E+00
  0.00000000E+00  0.00000000E+00  0.00000000E+00
  0.00000000E+00  0.00000000E+00  0.00000000E+00
  0.00000000E+00  0.00000000E+00  0.00000000E+00
  0.00000000E+00  0.00000000E+00  0.00000000E+00
  0.00000000E+00  0.00000000E+00  0.00000000E+00
  0.00000000E+00  0.00000000E+00  0.00000000E+00
  0.00000000E+00  0.00000000E+00  0.00000000E+00
  0.00000000E+00  0.00000000E+00  0.00000000E+00
  0.00000000E+00  0.00000000E+00  0.00000000E+00
  0.00000000E+00  0.00000000E+00  0.00000000E+00
  0.00000000E+00  0.00000000E+00  0.00000000E+00
  0.00000000E+00  0.00000000E+00  0.00000000E+00
  0.00000000E+00  0.00000000E+00  0.00000000E+00
  0.00000000E+00  0.00000000E+00  0.00000000E+00
  0.00000000E+00  0.00000000E+00  0.00000000E+00
  0.00000000E+00  0.00000000E+00  0.00000000E+00
  0.00000000E+00  0.00000000E+00  0.00000000E+00
  0.00000000E+00  0.00000000E+00  0.00000000E+00
  0.00000000E+00  0.00000000E+00  0.00000000E+00
  0.00000000E+00  0.00000000E+00  0.00000000E+00
  0.00000000E+00  0.00000000E+00  0.00000000E+00
  0.00000000E+00  0.00000000E+00  0.00000000E+00
  0.00000000E+00  0.00000000E+00  0.00000000E+00
  0.00000000E+00  0.00000000E+00  0.00000000E+00
  0.00000000E+00  0.00000000E+00  0.00000000E+00
  0.00000000E+00  0.00000000E+00  0.00000000E+00
  0.00000000E+00  0.00000000E+00  0.00000000E+00
  0.00000000E+00  0.00000000E+00  0.00000000E+00
  0.00000000E+00  0.00000000E+00  0.00000000E+00
  0.00000000E+00  0.00000000E+00  0.00000000E+00
  0.00000000E+00  0.00000000E+00  0.00000000E+00
  0.00000000E+00  0.00000000E+00  0.00000000E+00
  0.00000000E+00  0.00000000E+00  0.00000000E+00
  0.00000000E+00  0.00000000E+00  0.00000000E+00
  0.00000000E+00  0.00000000E+00  0.00000000E+00
  0.00000000E+00  0.00000000E+00  0.00000000E+00
  0.00000000E+00  0.00000000E+00  0.00000000E+00
  0.00000000E+00  0.00000000E+00  0.00000000E+00
  0.00000000E+00  0.00000000E+00  0.00000000E+00
  0.00000000E+00  0.00000000E+00  0.00000000E+00
  0.00000000E+00  0.00000000E+00  0.00000000E+00
  0.00000000E+00  0.00000000E+00  0.00000000E+00
  0.00000000E+00  0.00000000E+00  0.00000000E+00
  0.00000000E+00  0.00000000E+00  0.00000000E+00
  0.00000000E+00  0.00000000E+00  0.00000000E+00
  0.00000000E+00  0.00000000E+00  0.00000000E+00
  0.00000000E+00  0.00000000E+00  0.00000000E+00
  0.00000000E+00  0.00000000E+00  0.00000000E+00
  0.00000000E+00  0.00000000E+00  0.00000000E+00
  0.00000000E+00  0.00000000E+00  0.00000000E+00
  0.00000000E+00  0.00000000E+00  0.00000000E+00
