K-Path Generated by VASPKIT.
   20
Line-Mode
Reciprocal
   0.0000000000   0.0000000000   0.0000000000     \Gamma          
   0.5000000000   0.0000000000   0.0000000000     X              
 
   0.5000000000   0.0000000000   0.0000000000     X              
   0.5018496806   0.4944492065   0.0000000000     H_1            
 
   0.5018496806   0.4944492065   0.0000000000     H_1            
   0.5000000000   0.5000000000   0.0000000000     C              
 
   0.5000000000   0.5000000000   0.0000000000     C              
   0.4981503194   0.5055507935   0.0000000000     H              
 
   0.4981503194   0.5055507935   0.0000000000     H              
   0.0000000000   0.5000000000   0.0000000000     Y              
 
   0.0000000000   0.5000000000   0.0000000000     Y              
   0.0000000000   0.0000000000   0.0000000000     \Gamma          
 
