Primitive Cell                          
   1.00000000000000     
    14.3506441569727912    0.0443742370168051    0.0000000000000000
     0.0833236061506022   24.7674224575421178    0.0000000000000000
     0.0000000000000000    0.0000000000000000   20.0000000000000000
   N    H    O    C 
    24    24     6    42
Direct
  0.1538666895590026  0.7737877879428297  0.4377218137816712
  0.6516276845715865  0.2742134686878046  0.4340222029419039
  0.0766101301800504  0.6363650216816623  0.4601840884592860
  0.9891486339905597  0.7178132417430731  0.4455231143485392
  0.5743906580306088  0.1369583273182755  0.4581632460606500
  0.4866550933766618  0.2181592309354983  0.4423034761853728
  0.9115259223728955  0.6330664517791149  0.4472733642245501
  0.4113672533333599  0.8577061422505636  0.4657631571203638
  0.4867994385186378  0.7744381851712845  0.4388880133446946
  0.5753997541441862  0.8552023728260281  0.4457943401390807
  0.7436513276799701  0.6863678415123431  0.4417913050273938
  0.0763906259618992  0.5250639094795133  0.4785009396889564
  0.7346423915726490  0.7977309533709018  0.4267463048469224
  0.4165337894313552  0.9664756593010821  0.4477760748311468
  0.3225277377822451  0.7237083728443778  0.4700407783598948
  0.4093105895383289  0.1332865634003397  0.4455240298281424
  0.9099293801288155  0.3574814729982165  0.4640225268707141
  0.9842692570087550  0.2746435851217655  0.4336187828288658
  0.0740272351273461  0.3547017920807107  0.4446081807029145
  0.2414712139736253  0.1866161427928361  0.4429872177514866
  0.5753944971048099  0.0259662406503480  0.4773510278476749
  0.2316636570181387  0.2970606720693141  0.4189228688135458
  0.9165836372496017  0.4664716190862634  0.4488127943126088
  0.8202439022448615  0.2238672168853881  0.4661088388204888
  0.2454268201005974  0.6535087676534559  0.4835579723333225
  0.7427486543770314  0.1538335256882988  0.4798841728454377
  0.5241516510666173  0.6091219667725980  0.4509771880495350
  0.6337428163795096  0.6071884339970666  0.4064597490920363
  0.6334930052806840  0.6148662163556722  0.4952519719875852
  0.7156638147955405  0.0084127966959144  0.5600264617601667
  0.7866997270657734  0.9515849520719826  0.5343584982890022
  0.7543636730141188  0.0035770149374130  0.4753014701176212
  0.1577739058760130  0.9182330851107494  0.3879724965216127
  0.1110890341396242  0.8550431418846856  0.3581412300365940
  0.0946396783570265  0.8740499752878961  0.4434929010543058
  0.8795633622594679  0.7956399182552616  0.4211740270339490
  0.8498212579479016  0.5408707036085545  0.4374770007831401
  0.0225186298281841  0.1103088353010264  0.4636298834344927
  0.1296430926461554  0.1060832736840425  0.4163414220763073
  0.1341391943627386  0.1179222379718894  0.5043547609275052
  0.2177161928146276  0.5066253275840893  0.5599265602894832
  0.2875369744689635  0.4496482630580090  0.5330197635091238
  0.2543726434552198  0.5020586339579225  0.4747429844226190
  0.6560451440283543  0.4193693240443608  0.3871531657559402
  0.6078958662048706  0.3569727093480353  0.3559643333695774
  0.5938475305665278  0.3742918139540663  0.4420723528560728
  0.3763543823622797  0.2944421299499780  0.4102647044766243
  0.3487914983375831  0.0405261302436415  0.4357261608073841
  0.5840886635942084  0.6821275381531891  0.4414461780477907
  0.6531505643638553  0.9470458234726280  0.5031373583973888
  0.2319105339890584  0.8529880133067067  0.4175760904860510
  0.0820096031278865  0.1826063124350483  0.4470464377978374
  0.1532393091505497  0.4457464205274420  0.5033627431646153
  0.7302005465887333  0.3532973963469530  0.4138012788920946
  0.1577713878205600  0.7212352674871312  0.4540500573367723
  0.2426527403501524  0.6961707399994665  0.4702553197900201
  0.6553870367610415  0.2216870432417792  0.4505364884901724
  0.7402160600367935  0.1964842915805818  0.4665324837830127
  0.0692965947054489  0.6903329710803874  0.4532965567791152
  0.5669066758207677  0.1908320121248863  0.4503920338316192
  0.9956137148062680  0.6098123078247895  0.4562222927496933
  0.9122127201160026  0.6870963511305135  0.4435596506448078
  0.4952722944137520  0.8812074446114622  0.4584093046176108
  0.4110340427676249  0.8047124765772224  0.4526688001516987
  0.5676881196427672  0.8011914420835851  0.4393102377523732
  0.6560133032266720  0.7695565836312497  0.4335863892945824
  0.8213877295456982  0.7158123307319073  0.4371390344262238
  0.6618167483712867  0.7116853725291676  0.4387083115758657
  0.5954760787789581  0.6244560487608055  0.4490416535064412
  0.4963063823587461  0.9412034726414333  0.4630006024979849
  0.9964465711237906  0.5499728419680636  0.4615994769821725
  0.5763510335209148  0.9723953104392251  0.4809075726847638
  0.7323539636379408  0.9802773261484319  0.5192135297693952
  0.3202479256997819  0.7759914331916633  0.4537266591631735
  0.2331228101764111  0.8011424745633775  0.4367831316918327
  0.1424673311982474  0.8762431879031922  0.4007181458620650
  0.8164848645081904  0.7718550432829829  0.4274424539633586
  0.9153742472468878  0.5203973037027509  0.4488685657745464
  0.4935644002488218  0.1102371358715217  0.4545387034060511
  0.4098594900569452  0.1872965461178708  0.4409894050691250
  0.9941279746016818  0.3808286990141383  0.4575679385742220
  0.9089600726347129  0.3048228952573808  0.4489391132132496
  0.0655123091175795  0.3009906070723360  0.4358204627286852
  0.1535608927641334  0.2692307675098604  0.4298922570032175
  0.3188921898467427  0.2157555627691323  0.4342083629528730
  0.1595933466850781  0.2117898607046982  0.4396510535687312
  0.0936945470674644  0.1253939680527765  0.4586198921157063
  0.9960636114714276  0.4407261519702743  0.4635046584100948
  0.4951179809485069  0.0504143848727878  0.4602536823244350
  0.0766033253456442  0.4714695991437381  0.4815603846905816
  0.2331716444114633  0.4786157028752953  0.5187428831363903
  0.8180692323566490  0.2761658152919111  0.4497916915823694
  0.7310459166550700  0.3014151244487877  0.4329393095925838
  0.6406190447028877  0.3771811681741966  0.3987652246217266
  0.3135536014122522  0.2711527084140073  0.4199551753713777
  0.4145567725885329  0.0204032716151232  0.4474691140071840
 
  0.00000000E+00  0.00000000E+00  0.00000000E+00
  0.00000000E+00  0.00000000E+00  0.00000000E+00
  0.00000000E+00  0.00000000E+00  0.00000000E+00
  0.00000000E+00  0.00000000E+00  0.00000000E+00
  0.00000000E+00  0.00000000E+00  0.00000000E+00
  0.00000000E+00  0.00000000E+00  0.00000000E+00
  0.00000000E+00  0.00000000E+00  0.00000000E+00
  0.00000000E+00  0.00000000E+00  0.00000000E+00
  0.00000000E+00  0.00000000E+00  0.00000000E+00
  0.00000000E+00  0.00000000E+00  0.00000000E+00
  0.00000000E+00  0.00000000E+00  0.00000000E+00
  0.00000000E+00  0.00000000E+00  0.00000000E+00
  0.00000000E+00  0.00000000E+00  0.00000000E+00
  0.00000000E+00  0.00000000E+00  0.00000000E+00
  0.00000000E+00  0.00000000E+00  0.00000000E+00
  0.00000000E+00  0.00000000E+00  0.00000000E+00
  0.00000000E+00  0.00000000E+00  0.00000000E+00
  0.00000000E+00  0.00000000E+00  0.00000000E+00
  0.00000000E+00  0.00000000E+00  0.00000000E+00
  0.00000000E+00  0.00000000E+00  0.00000000E+00
  0.00000000E+00  0.00000000E+00  0.00000000E+00
  0.00000000E+00  0.00000000E+00  0.00000000E+00
  0.00000000E+00  0.00000000E+00  0.00000000E+00
  0.00000000E+00  0.00000000E+00  0.00000000E+00
  0.00000000E+00  0.00000000E+00  0.00000000E+00
  0.00000000E+00  0.00000000E+00  0.00000000E+00
  0.00000000E+00  0.00000000E+00  0.00000000E+00
  0.00000000E+00  0.00000000E+00  0.00000000E+00
  0.00000000E+00  0.00000000E+00  0.00000000E+00
  0.00000000E+00  0.00000000E+00  0.00000000E+00
  0.00000000E+00  0.00000000E+00  0.00000000E+00
  0.00000000E+00  0.00000000E+00  0.00000000E+00
  0.00000000E+00  0.00000000E+00  0.00000000E+00
  0.00000000E+00  0.00000000E+00  0.00000000E+00
  0.00000000E+00  0.00000000E+00  0.00000000E+00
  0.00000000E+00  0.00000000E+00  0.00000000E+00
  0.00000000E+00  0.00000000E+00  0.00000000E+00
  0.00000000E+00  0.00000000E+00  0.00000000E+00
  0.00000000E+00  0.00000000E+00  0.00000000E+00
  0.00000000E+00  0.00000000E+00  0.00000000E+00
  0.00000000E+00  0.00000000E+00  0.00000000E+00
  0.00000000E+00  0.00000000E+00  0.00000000E+00
  0.00000000E+00  0.00000000E+00  0.00000000E+00
  0.00000000E+00  0.00000000E+00  0.00000000E+00
  0.00000000E+00  0.00000000E+00  0.00000000E+00
  0.00000000E+00  0.00000000E+00  0.00000000E+00
  0.00000000E+00  0.00000000E+00  0.00000000E+00
  0.00000000E+00  0.00000000E+00  0.00000000E+00
  0.00000000E+00  0.00000000E+00  0.00000000E+00
  0.00000000E+00  0.00000000E+00  0.00000000E+00
  0.00000000E+00  0.00000000E+00  0.00000000E+00
  0.00000000E+00  0.00000000E+00  0.00000000E+00
  0.00000000E+00  0.00000000E+00  0.00000000E+00
  0.00000000E+00  0.00000000E+00  0.00000000E+00
  0.00000000E+00  0.00000000E+00  0.00000000E+00
  0.00000000E+00  0.00000000E+00  0.00000000E+00
  0.00000000E+00  0.00000000E+00  0.00000000E+00
  0.00000000E+00  0.00000000E+00  0.00000000E+00
  0.00000000E+00  0.00000000E+00  0.00000000E+00
  0.00000000E+00  0.00000000E+00  0.00000000E+00
  0.00000000E+00  0.00000000E+00  0.00000000E+00
  0.00000000E+00  0.00000000E+00  0.00000000E+00
  0.00000000E+00  0.00000000E+00  0.00000000E+00
  0.00000000E+00  0.00000000E+00  0.00000000E+00
  0.00000000E+00  0.00000000E+00  0.00000000E+00
  0.00000000E+00  0.00000000E+00  0.00000000E+00
  0.00000000E+00  0.00000000E+00  0.00000000E+00
  0.00000000E+00  0.00000000E+00  0.00000000E+00
  0.00000000E+00  0.00000000E+00  0.00000000E+00
  0.00000000E+00  0.00000000E+00  0.00000000E+00
  0.00000000E+00  0.00000000E+00  0.00000000E+00
  0.00000000E+00  0.00000000E+00  0.00000000E+00
  0.00000000E+00  0.00000000E+00  0.00000000E+00
  0.00000000E+00  0.00000000E+00  0.00000000E+00
  0.00000000E+00  0.00000000E+00  0.00000000E+00
  0.00000000E+00  0.00000000E+00  0.00000000E+00
  0.00000000E+00  0.00000000E+00  0.00000000E+00
  0.00000000E+00  0.00000000E+00  0.00000000E+00
  0.00000000E+00  0.00000000E+00  0.00000000E+00
  0.00000000E+00  0.00000000E+00  0.00000000E+00
  0.00000000E+00  0.00000000E+00  0.00000000E+00
  0.00000000E+00  0.00000000E+00  0.00000000E+00
  0.00000000E+00  0.00000000E+00  0.00000000E+00
  0.00000000E+00  0.00000000E+00  0.00000000E+00
  0.00000000E+00  0.00000000E+00  0.00000000E+00
  0.00000000E+00  0.00000000E+00  0.00000000E+00
  0.00000000E+00  0.00000000E+00  0.00000000E+00
  0.00000000E+00  0.00000000E+00  0.00000000E+00
  0.00000000E+00  0.00000000E+00  0.00000000E+00
  0.00000000E+00  0.00000000E+00  0.00000000E+00
  0.00000000E+00  0.00000000E+00  0.00000000E+00
  0.00000000E+00  0.00000000E+00  0.00000000E+00
  0.00000000E+00  0.00000000E+00  0.00000000E+00
  0.00000000E+00  0.00000000E+00  0.00000000E+00
  0.00000000E+00  0.00000000E+00  0.00000000E+00
  0.00000000E+00  0.00000000E+00  0.00000000E+00
