Primitive Cell                          
   1.00000000000000     
    34.1946233819000796   -0.0138319694430543    0.0000000000000000
   -17.1092760623570754   29.6696451052441077    0.0000000000000000
     0.0000000000000000    0.0000000000000000   20.0000000000000000
   N    H    C 
    24    84    84
Direct
  0.0370308509195567  0.9784635958075683  0.5292130010637166
  0.4882716908310698  0.2306452541523285  0.5199209417503639
  0.4175882087141645  0.2280400040990571  0.5324214204478395
  0.7713861362867789  0.5333810989949299  0.5226736463977630
  0.8394967102847772  0.6040581043216307  0.5338081778267423
  0.7680076038958319  0.6012309897088741  0.5289576453853044
  0.3241610934479766  0.1737935631819312  0.5396833911279231
  0.8785820645625293  0.6973038704462127  0.5414781221555103
  0.5280529326317378  0.3209361236162849  0.5064020383305703
  0.1363055853123214  0.0865310330456239  0.5353158566668412
  0.9788423312290675  0.8849133407474099  0.5364094694461983
  0.4204021371108482  0.1594832495864082  0.5270443509033882
  0.9699845417071131  0.9839958901946702  0.5279843993568605
  0.0425503144705459  0.0508962468314920  0.5274259373869015
  0.7918653149999457  0.2509169130085738  0.5205528563628334
  0.7941302926038816  0.1827665612118281  0.5332206151384966
  0.8629765504985869  0.2539664638081192  0.5290610956165835
  0.8478646469522531  0.1432060662531782  0.5397536793004463
  0.8223488088362316  0.4937589452933722  0.5094166926525432
  0.7012967602279971  0.2004247674042858  0.5068924233976091
  0.9342364776111793  0.0419151284339776  0.5338930230589511
  0.6814855702337113  0.4866860963420407  0.5087189558642109
  0.8354040575896207  0.3408781276146655  0.5096294830664263
  0.5351790377483567  0.1876977408162759  0.5070066168250378
  0.9260174132800145  0.8992912865196914  0.5255298880673465
  0.1219500770960025  0.0193850723733249  0.5253952920770004
  0.3348835757132420  0.1185533221761546  0.5304210308589603
  0.6803209770600631  0.5474288403827288  0.5235192776351383
  0.8125917048362510  0.6866630299670291  0.5316824263719155
  0.3160909109814938  0.2129939796535041  0.6269570876152883
  0.2665605893452181  0.2115364229377974  0.6589885765615193
  0.2818749730348173  0.1720778077986793  0.6870597008760555
  0.1466007482054792  0.1348276623626461  0.6223597315710805
  0.1768852910799552  0.1237758278402055  0.6841940870546708
  0.1974930657146814  0.1797831048974388  0.6568854309390417
  0.9259998683267767  0.7055781477758103  0.6287223884329762
  0.9742320274758995  0.7550870730089443  0.6602642247413470
  0.9195296883129132  0.7399952751545200  0.6887322127844584
  0.0170176339444552  0.8748605215922964  0.6234966949019025
  0.9758349059194344  0.8444336124163598  0.6854601689845765
  0.0114923158752731  0.8241330988562794  0.6578430377738869
  0.6126876974773552  0.4549806996336940  0.6635040896662332
  0.6478984676054651  0.5015409019613699  0.6125932993761865
  0.5893436844737963  0.4822409578087061  0.6169071513527555
  0.5158536452238422  0.3467667924210573  0.6227719235144846
  0.5492970452895918  0.4001838699707960  0.6603555608567930
  0.5066759156753662  0.3918287366070530  0.6027663354667752
  0.0015206748247039  0.0947647938060214  0.5244611088390343
  0.4743660935577054  0.1257601659133343  0.5218260949933509
  0.8971853493650030  0.3415334605168709  0.5243571213704499
  0.9035998742821434  0.2090093052423683  0.5316867788475079
  0.8079028517212521  0.0952988187744950  0.6260680249478625
  0.8087461974447123  0.0467789470210676  0.6571884528303542
  0.8484899554645864  0.1011532458331814  0.6862871750836135
  0.8852964505150354  0.0033323505292842  0.6200984127692308
  0.8958008683890171  0.0440375822276664  0.6826674087522235
  0.8399690690903654  0.0089334443479601  0.6540477078011051
  0.8726254418092978  0.4089452534820239  0.6649483192303123
  0.8843213628648599  0.3742634236139892  0.6133476672992444
  0.9232371404364272  0.4327720821132033  0.6181995756191938
  0.8613836370410368  0.5063943686265446  0.6248556701326251
  0.8803939061759820  0.4722195205343951  0.6627770321877122
  0.9154383031407392  0.5146001922950347  0.6054993302918632
  0.5664127990271339  0.1512437524242713  0.6627140315368436
  0.5198932304514372  0.1393601109663862  0.6112120900628213
  0.5395933298661078  0.1005199246546624  0.6164768395871434
  0.6751790894204319  0.1622090133606804  0.6226198157763889
  0.6223067112228122  0.1442728340008799  0.6610675999916253
  0.6288550165873161  0.1082207223341243  0.6048260324259331
  0.4654294904907630  0.3155114755041879  0.5337031957492329
  0.2658637385422367  0.1226288066427585  0.3749541972523502
  0.3147082302971214  0.1394471238188615  0.4239534329431578
  0.2728571073386235  0.0817630046991340  0.4185208204611186
  0.1456794434094846  0.0613141617412438  0.4195695364866978
  0.1962110564204664  0.0904474214592312  0.3730878085936453
  0.1839071906731320  0.0406620014443533  0.4161794602535878
  0.8859233713564834  0.7551806850659801  0.3762816914347695
  0.8540047556610375  0.7064701216322717  0.4254101608258622
  0.8378420186305604  0.7480730527169044  0.4195258034882201
  0.9445270703671866  0.8751996859747138  0.4202547069755980
  0.9229516419630812  0.8245787310701260  0.3741546465140289
  0.8855882241070603  0.8372153471968673  0.4170768657863917
  0.7000232291402639  0.4538501309959528  0.4214237553462894
  0.6635434067126624  0.4088186033301753  0.3667980727737898
  0.6646071109449210  0.4610155962517339  0.3647423753734600
  0.5631059865317951  0.3098781804471997  0.4183261514994712
  0.5606708928366260  0.3460398073813664  0.3575117573448736
  0.6127317581615088  0.3482115304998317  0.3730388172334784
  0.8794711839453555  0.5565805420409333  0.5356330021244489
  0.7066511274737479  0.1432741290766657  0.5341466258674856
  0.8988986038589672  0.1365368293823934  0.3747440543540606
  0.8826360337553396  0.1686969238069551  0.4243824249168568
  0.9402402361588642  0.1839163452923884  0.4186706717247191
  0.9594927698068219  0.0767238445620890  0.4182265625974253
  0.9308864803549142  0.0988765084296901  0.3721762568800884
  0.9808096849083938  0.1356704760862399  0.4157295722527365
  0.7836614915194318  0.3225048047957415  0.4230348066349947
  0.7749009247148209  0.3590041118304441  0.3687786002768334
  0.8261132071608444  0.3579307322440428  0.3662400691765484
  0.7753392680887856  0.4582139033671098  0.4219273234081342
  0.8151524822661003  0.4630569073760640  0.3614333415330506
  0.7659120715497991  0.4100782663619000  0.3742887998683102
  0.5681895343940226  0.2387781469971060  0.4197005472992998
  0.6138487922925364  0.2478407768752717  0.3659779588784531
  0.5618068312113635  0.1964958393801410  0.3631071015465963
  0.7127091673980530  0.2463949128105511  0.4185981676380379
  0.6767048852855382  0.2078100167133741  0.3575756655596436
  0.6744864997558651  0.2576107822050560  0.3728379936391235
  0.0605711537917344  0.0237376564534131  0.5285926041437250
  0.9917886474925481  0.9604954758904114  0.5289918133643994
  0.1101220903046780  0.0439370543217805  0.5289352529743923
  0.9624030540083055  0.9110476668451923  0.5295074904522608
  0.4627801315475750  0.2501903425066558  0.5253472462665343
  0.3982483588730261  0.1828110079318392  0.5316348090217105
  0.3485189297396687  0.1552533568082595  0.5339510786885597
  0.7488860292945390  0.5560170554944861  0.5239647144135162
  0.8135345488791330  0.6233611085609994  0.5332432805516660
  0.8356746494004668  0.6730140599425098  0.5354724415986638
  0.6988805264077769  0.5288586439341216  0.5193212540518957
  0.2772916504605192  0.1500140319048242  0.5359513976795753
  0.2541178202537111  0.1592946863512594  0.5869385003593308
  0.2069926785582723  0.1376008828130040  0.5855725289108520
  0.2810294546012244  0.1908194101507803  0.6427770710982514
  0.1806718690395641  0.1446005421997896  0.6399592515856298
  0.9016726125938490  0.7440919882179813  0.5374885061330588
  0.9341637638962013  0.7673660846075521  0.5883842983302614
  0.9595125783247198  0.8144198094182897  0.5868263686690938
  0.9389574718495055  0.7406443785820898  0.6443228281593960
  0.9929001960374464  0.8407964658916853  0.6411076365942847
  0.5665399685275716  0.3968037951747760  0.5569553564771894
  0.6059312069455984  0.4395424000633454  0.5575798511645687
  0.6145673854602265  0.4712459068631745  0.6152290297812328
  0.5330806986387984  0.3832196917161639  0.6134914552775612
  0.1831396685583329  0.1065987694943189  0.5332895696753397
  0.9522269218134127  0.8381371135877558  0.5344596911683723
  0.4656605746164715  0.1855662438322412  0.5217048460864646
  0.8164897960284918  0.5588837208288879  0.5275919467965977
  0.9971960368175559  0.0291488636516206  0.5278102608294049
  0.9769358845850320  0.0584014714337968  0.5278355688357124
  0.4929208373244194  0.1628456154664093  0.5173990819310319
  0.8370132897348981  0.2732523206301138  0.5233586915236756
  0.7721180475560274  0.2059017787026036  0.5259945662687358
  0.8394389757684095  0.2085092700252602  0.5328842705329109
  0.8667838069351248  0.1861285276174485  0.5348408172522028
  0.8600484985146792  0.3232349502062561  0.5197407638439913
  0.8712935904887971  0.1198151799535196  0.5355150298119895
  0.8615122691243968  0.0868994635750795  0.5858850822178567
  0.8829346663934601  0.0612496284697954  0.5840863185161567
  0.8298063270702940  0.0820442333561431  0.6416381727774620
  0.8753763393583895  0.0274361931186959  0.6378945113612318
  0.8601924432018890  0.4554014698526530  0.5591795406422122
  0.8637291755155374  0.4161316086053617  0.5592438643559774
  0.8870559965859925  0.4074183810341694  0.6164960712415706
  0.8801812962560476  0.4886666736358549  0.6158573077259533
  0.6251705698164898  0.1631659271196426  0.5569518769651083
  0.5823073068799189  0.1596505982368868  0.5569234044949809
  0.5503678694554708  0.1366342350945686  0.6143904295328326
  0.6385719913166028  0.1436507804187883  0.6141501248917294
  0.9141865528968651  0.0686655579554767  0.5320010567167799
  0.4863270732217728  0.3000588131840587  0.5231308565216182
  0.5601473675966844  0.3658935628082602  0.5047128608951184
  0.2062531477928502  0.0995478275157069  0.4798137109816167
  0.2537490427353859  0.1214587349894671  0.4811118046675062
  0.2782473456907510  0.1162014763002261  0.4220900569461676
  0.1815391699423898  0.0715127399452768  0.4195305493524586
  0.9221207147970958  0.8148935232637982  0.4809570139223140
  0.8966512116023466  0.7674741082895196  0.4824310130033780
  0.8670326242686315  0.7428448724385390  0.4233679243568389
  0.9187853213854211  0.8394327722718415  0.4204677379575372
  0.6383092475144991  0.4507239971189705  0.5057324007894906
  0.6306863886939524  0.4204759990911313  0.4514807517235795
  0.5919509022478593  0.3782200694115687  0.4510984926940793
  0.6663827622800937  0.4363289126470136  0.3980874236662331
  0.5820263248083748  0.3439432738701456  0.3970146009728097
  0.8430404871671939  0.5354984392053979  0.5255773904430967
  0.7221621747176314  0.1796085345277092  0.5236239604160886
  0.8354392436099189  0.4618388679020242  0.5073179958489007
  0.6562871251654059  0.1875483128456636  0.5048288706959454
  0.9215727788908197  0.0991719379583458  0.4789417180545641
  0.8999478982961548  0.1249807716528295  0.4806864365188730
  0.9055778805548726  0.1551405206132088  0.4221034632405463
  0.9496742004541403  0.1026252525202622  0.4186272755340710
  0.8424712594649577  0.3839491640430950  0.5072554920331598
  0.8196232112432114  0.3916559808256324  0.4533260148923262
  0.8159683579781003  0.4302867293392580  0.4534635350262448
  0.7996919905509614  0.3561199067788223  0.3998009946779320
  0.7915199860351265  0.4404748566134771  0.3997955550685077
  0.5712679379083383  0.1806449041709044  0.5046588947363588
  0.6017991759206325  0.2032671587456107  0.4506535688875601
  0.6441376730833142  0.2068792628730804  0.4508400823500054
  0.5861307597290093  0.2229686866919494  0.3968286255769513
  0.6786697142763529  0.2312191518371165  0.3969943082654552
 
  0.00000000E+00  0.00000000E+00  0.00000000E+00
  0.00000000E+00  0.00000000E+00  0.00000000E+00
  0.00000000E+00  0.00000000E+00  0.00000000E+00
  0.00000000E+00  0.00000000E+00  0.00000000E+00
  0.00000000E+00  0.00000000E+00  0.00000000E+00
  0.00000000E+00  0.00000000E+00  0.00000000E+00
  0.00000000E+00  0.00000000E+00  0.00000000E+00
  0.00000000E+00  0.00000000E+00  0.00000000E+00
  0.00000000E+00  0.00000000E+00  0.00000000E+00
  0.00000000E+00  0.00000000E+00  0.00000000E+00
  0.00000000E+00  0.00000000E+00  0.00000000E+00
  0.00000000E+00  0.00000000E+00  0.00000000E+00
  0.00000000E+00  0.00000000E+00  0.00000000E+00
  0.00000000E+00  0.00000000E+00  0.00000000E+00
  0.00000000E+00  0.00000000E+00  0.00000000E+00
  0.00000000E+00  0.00000000E+00  0.00000000E+00
  0.00000000E+00  0.00000000E+00  0.00000000E+00
  0.00000000E+00  0.00000000E+00  0.00000000E+00
  0.00000000E+00  0.00000000E+00  0.00000000E+00
  0.00000000E+00  0.00000000E+00  0.00000000E+00
  0.00000000E+00  0.00000000E+00  0.00000000E+00
  0.00000000E+00  0.00000000E+00  0.00000000E+00
  0.00000000E+00  0.00000000E+00  0.00000000E+00
  0.00000000E+00  0.00000000E+00  0.00000000E+00
  0.00000000E+00  0.00000000E+00  0.00000000E+00
  0.00000000E+00  0.00000000E+00  0.00000000E+00
  0.00000000E+00  0.00000000E+00  0.00000000E+00
  0.00000000E+00  0.00000000E+00  0.00000000E+00
  0.00000000E+00  0.00000000E+00  0.00000000E+00
  0.00000000E+00  0.00000000E+00  0.00000000E+00
  0.00000000E+00  0.00000000E+00  0.00000000E+00
  0.00000000E+00  0.00000000E+00  0.00000000E+00
  0.00000000E+00  0.00000000E+00  0.00000000E+00
  0.00000000E+00  0.00000000E+00  0.00000000E+00
  0.00000000E+00  0.00000000E+00  0.00000000E+00
  0.00000000E+00  0.00000000E+00  0.00000000E+00
  0.00000000E+00  0.00000000E+00  0.00000000E+00
  0.00000000E+00  0.00000000E+00  0.00000000E+00
  0.00000000E+00  0.00000000E+00  0.00000000E+00
  0.00000000E+00  0.00000000E+00  0.00000000E+00
  0.00000000E+00  0.00000000E+00  0.00000000E+00
  0.00000000E+00  0.00000000E+00  0.00000000E+00
  0.00000000E+00  0.00000000E+00  0.00000000E+00
  0.00000000E+00  0.00000000E+00  0.00000000E+00
  0.00000000E+00  0.00000000E+00  0.00000000E+00
  0.00000000E+00  0.00000000E+00  0.00000000E+00
  0.00000000E+00  0.00000000E+00  0.00000000E+00
  0.00000000E+00  0.00000000E+00  0.00000000E+00
  0.00000000E+00  0.00000000E+00  0.00000000E+00
  0.00000000E+00  0.00000000E+00  0.00000000E+00
  0.00000000E+00  0.00000000E+00  0.00000000E+00
  0.00000000E+00  0.00000000E+00  0.00000000E+00
  0.00000000E+00  0.00000000E+00  0.00000000E+00
  0.00000000E+00  0.00000000E+00  0.00000000E+00
  0.00000000E+00  0.00000000E+00  0.00000000E+00
  0.00000000E+00  0.00000000E+00  0.00000000E+00
  0.00000000E+00  0.00000000E+00  0.00000000E+00
  0.00000000E+00  0.00000000E+00  0.00000000E+00
  0.00000000E+00  0.00000000E+00  0.00000000E+00
  0.00000000E+00  0.00000000E+00  0.00000000E+00
  0.00000000E+00  0.00000000E+00  0.00000000E+00
  0.00000000E+00  0.00000000E+00  0.00000000E+00
  0.00000000E+00  0.00000000E+00  0.00000000E+00
  0.00000000E+00  0.00000000E+00  0.00000000E+00
  0.00000000E+00  0.00000000E+00  0.00000000E+00
  0.00000000E+00  0.00000000E+00  0.00000000E+00
  0.00000000E+00  0.00000000E+00  0.00000000E+00
  0.00000000E+00  0.00000000E+00  0.00000000E+00
  0.00000000E+00  0.00000000E+00  0.00000000E+00
  0.00000000E+00  0.00000000E+00  0.00000000E+00
  0.00000000E+00  0.00000000E+00  0.00000000E+00
  0.00000000E+00  0.00000000E+00  0.00000000E+00
  0.00000000E+00  0.00000000E+00  0.00000000E+00
  0.00000000E+00  0.00000000E+00  0.00000000E+00
  0.00000000E+00  0.00000000E+00  0.00000000E+00
  0.00000000E+00  0.00000000E+00  0.00000000E+00
  0.00000000E+00  0.00000000E+00  0.00000000E+00
  0.00000000E+00  0.00000000E+00  0.00000000E+00
  0.00000000E+00  0.00000000E+00  0.00000000E+00
  0.00000000E+00  0.00000000E+00  0.00000000E+00
  0.00000000E+00  0.00000000E+00  0.00000000E+00
  0.00000000E+00  0.00000000E+00  0.00000000E+00
  0.00000000E+00  0.00000000E+00  0.00000000E+00
  0.00000000E+00  0.00000000E+00  0.00000000E+00
  0.00000000E+00  0.00000000E+00  0.00000000E+00
  0.00000000E+00  0.00000000E+00  0.00000000E+00
  0.00000000E+00  0.00000000E+00  0.00000000E+00
  0.00000000E+00  0.00000000E+00  0.00000000E+00
  0.00000000E+00  0.00000000E+00  0.00000000E+00
  0.00000000E+00  0.00000000E+00  0.00000000E+00
  0.00000000E+00  0.00000000E+00  0.00000000E+00
  0.00000000E+00  0.00000000E+00  0.00000000E+00
  0.00000000E+00  0.00000000E+00  0.00000000E+00
  0.00000000E+00  0.00000000E+00  0.00000000E+00
  0.00000000E+00  0.00000000E+00  0.00000000E+00
  0.00000000E+00  0.00000000E+00  0.00000000E+00
  0.00000000E+00  0.00000000E+00  0.00000000E+00
  0.00000000E+00  0.00000000E+00  0.00000000E+00
  0.00000000E+00  0.00000000E+00  0.00000000E+00
  0.00000000E+00  0.00000000E+00  0.00000000E+00
  0.00000000E+00  0.00000000E+00  0.00000000E+00
  0.00000000E+00  0.00000000E+00  0.00000000E+00
  0.00000000E+00  0.00000000E+00  0.00000000E+00
  0.00000000E+00  0.00000000E+00  0.00000000E+00
  0.00000000E+00  0.00000000E+00  0.00000000E+00
  0.00000000E+00  0.00000000E+00  0.00000000E+00
  0.00000000E+00  0.00000000E+00  0.00000000E+00
  0.00000000E+00  0.00000000E+00  0.00000000E+00
  0.00000000E+00  0.00000000E+00  0.00000000E+00
  0.00000000E+00  0.00000000E+00  0.00000000E+00
  0.00000000E+00  0.00000000E+00  0.00000000E+00
  0.00000000E+00  0.00000000E+00  0.00000000E+00
  0.00000000E+00  0.00000000E+00  0.00000000E+00
  0.00000000E+00  0.00000000E+00  0.00000000E+00
  0.00000000E+00  0.00000000E+00  0.00000000E+00
  0.00000000E+00  0.00000000E+00  0.00000000E+00
  0.00000000E+00  0.00000000E+00  0.00000000E+00
  0.00000000E+00  0.00000000E+00  0.00000000E+00
  0.00000000E+00  0.00000000E+00  0.00000000E+00
  0.00000000E+00  0.00000000E+00  0.00000000E+00
  0.00000000E+00  0.00000000E+00  0.00000000E+00
  0.00000000E+00  0.00000000E+00  0.00000000E+00
  0.00000000E+00  0.00000000E+00  0.00000000E+00
  0.00000000E+00  0.00000000E+00  0.00000000E+00
  0.00000000E+00  0.00000000E+00  0.00000000E+00
  0.00000000E+00  0.00000000E+00  0.00000000E+00
  0.00000000E+00  0.00000000E+00  0.00000000E+00
  0.00000000E+00  0.00000000E+00  0.00000000E+00
  0.00000000E+00  0.00000000E+00  0.00000000E+00
  0.00000000E+00  0.00000000E+00  0.00000000E+00
  0.00000000E+00  0.00000000E+00  0.00000000E+00
  0.00000000E+00  0.00000000E+00  0.00000000E+00
  0.00000000E+00  0.00000000E+00  0.00000000E+00
  0.00000000E+00  0.00000000E+00  0.00000000E+00
  0.00000000E+00  0.00000000E+00  0.00000000E+00
  0.00000000E+00  0.00000000E+00  0.00000000E+00
  0.00000000E+00  0.00000000E+00  0.00000000E+00
  0.00000000E+00  0.00000000E+00  0.00000000E+00
  0.00000000E+00  0.00000000E+00  0.00000000E+00
  0.00000000E+00  0.00000000E+00  0.00000000E+00
  0.00000000E+00  0.00000000E+00  0.00000000E+00
  0.00000000E+00  0.00000000E+00  0.00000000E+00
  0.00000000E+00  0.00000000E+00  0.00000000E+00
  0.00000000E+00  0.00000000E+00  0.00000000E+00
  0.00000000E+00  0.00000000E+00  0.00000000E+00
  0.00000000E+00  0.00000000E+00  0.00000000E+00
  0.00000000E+00  0.00000000E+00  0.00000000E+00
  0.00000000E+00  0.00000000E+00  0.00000000E+00
  0.00000000E+00  0.00000000E+00  0.00000000E+00
  0.00000000E+00  0.00000000E+00  0.00000000E+00
  0.00000000E+00  0.00000000E+00  0.00000000E+00
  0.00000000E+00  0.00000000E+00  0.00000000E+00
  0.00000000E+00  0.00000000E+00  0.00000000E+00
  0.00000000E+00  0.00000000E+00  0.00000000E+00
  0.00000000E+00  0.00000000E+00  0.00000000E+00
  0.00000000E+00  0.00000000E+00  0.00000000E+00
  0.00000000E+00  0.00000000E+00  0.00000000E+00
  0.00000000E+00  0.00000000E+00  0.00000000E+00
  0.00000000E+00  0.00000000E+00  0.00000000E+00
  0.00000000E+00  0.00000000E+00  0.00000000E+00
  0.00000000E+00  0.00000000E+00  0.00000000E+00
  0.00000000E+00  0.00000000E+00  0.00000000E+00
  0.00000000E+00  0.00000000E+00  0.00000000E+00
  0.00000000E+00  0.00000000E+00  0.00000000E+00
  0.00000000E+00  0.00000000E+00  0.00000000E+00
  0.00000000E+00  0.00000000E+00  0.00000000E+00
  0.00000000E+00  0.00000000E+00  0.00000000E+00
  0.00000000E+00  0.00000000E+00  0.00000000E+00
  0.00000000E+00  0.00000000E+00  0.00000000E+00
  0.00000000E+00  0.00000000E+00  0.00000000E+00
  0.00000000E+00  0.00000000E+00  0.00000000E+00
  0.00000000E+00  0.00000000E+00  0.00000000E+00
  0.00000000E+00  0.00000000E+00  0.00000000E+00
  0.00000000E+00  0.00000000E+00  0.00000000E+00
  0.00000000E+00  0.00000000E+00  0.00000000E+00
  0.00000000E+00  0.00000000E+00  0.00000000E+00
  0.00000000E+00  0.00000000E+00  0.00000000E+00
  0.00000000E+00  0.00000000E+00  0.00000000E+00
  0.00000000E+00  0.00000000E+00  0.00000000E+00
  0.00000000E+00  0.00000000E+00  0.00000000E+00
  0.00000000E+00  0.00000000E+00  0.00000000E+00
  0.00000000E+00  0.00000000E+00  0.00000000E+00
  0.00000000E+00  0.00000000E+00  0.00000000E+00
  0.00000000E+00  0.00000000E+00  0.00000000E+00
  0.00000000E+00  0.00000000E+00  0.00000000E+00
  0.00000000E+00  0.00000000E+00  0.00000000E+00
  0.00000000E+00  0.00000000E+00  0.00000000E+00
  0.00000000E+00  0.00000000E+00  0.00000000E+00
  0.00000000E+00  0.00000000E+00  0.00000000E+00
  0.00000000E+00  0.00000000E+00  0.00000000E+00
  0.00000000E+00  0.00000000E+00  0.00000000E+00
  0.00000000E+00  0.00000000E+00  0.00000000E+00
