Primitive Cell                          
   1.00000000000000     
    29.1565367126858206   -0.0652143036508222    0.0000000000000000
   -14.6346173002755329   25.1917483077572371    0.0000000000000000
     0.0000000000000000    0.0000000000000000   20.0000000000000000
   N    H    C 
    12    48    54
Direct
  0.3887976575870908  0.6905252135869659  0.4945447383231993
  0.3034696816963987  0.6100509037315334  0.4943889575212239
  0.3086907591701618  0.6952626845295100  0.4939345767610206
  0.3812510800196947  0.6077390118782517  0.4948635003745139
  0.2281501181098378  0.6174228804846820  0.4935851499815769
  0.3917317170949630  0.7709488242196585  0.4945164526927854
  0.6116762735571726  0.3033785919184098  0.5107247918910147
  0.6921055598464889  0.3888354745457150  0.5118795516294981
  0.6968339742442353  0.3086399173866994  0.5116791118681974
  0.6101059809773801  0.3819630044533611  0.5116998549533633
  0.7724479693161967  0.3908278878854290  0.5126498244064379
  0.6182374922096869  0.2280031540352851  0.5109936099638759
  0.3570894448966229  0.5680384691868667  0.4888385878576855
  0.2129927532608988  0.6417240973640332  0.4874996632271049
  0.4313370939012913  0.7863707304812095  0.4883524332784646
  0.6314331167677381  0.4216908821258869  0.5200033822674683
  0.7907808317781786  0.3695437587489678  0.5202868348647982
  0.5783741302768775  0.2091271856852046  0.5178070115738223
  0.4008720078929358  0.8819855292556795  0.3906945614750228
  0.5641037029058680  0.1458022554592802  0.4273593939535942
  0.4496399207605180  0.0392256654626948  0.4293478657264629
  0.4969575262115455  0.0710140144217561  0.3649234073955938
  0.4407031741053302  0.9712573601792300  0.3469070402942904
  0.5090471419060307  0.9926100604445622  0.3550897017495345
  0.6674118281827148  0.2068328677788216  0.5645408514994585
  0.6756213910692566  0.2109548052003944  0.4770858360497527
  0.1166087283677797  0.5168521418549332  0.3909147808467281
  0.8538048010846424  0.4191353955277606  0.4284089197506376
  0.9586985437694153  0.4093807344980220  0.4286898506647248
  0.9277881279865170  0.4264950318519993  0.3650692254523875
  0.0273074934708006  0.4689687474492459  0.3469003600307587
  0.0074778165918659  0.5168834847465931  0.3565471166090077
  0.7945099577398480  0.4612140129458808  0.5672811246077742
  0.7902829738688055  0.4659392508371312  0.4799202451930142
  0.4846863928473724  0.6005524583530146  0.3933215679336541
  0.5836740517841719  0.4371776750136078  0.4296425733744513
  0.5926715939320673  0.5519285820316995  0.4335149787318429
  0.5778390510775822  0.5054320482711745  0.3682905483117196
  0.5348436912618553  0.5616935470494582  0.3501244255361726
  0.4872819259867498  0.4931576887689459  0.3568000387919099
  0.5393370062328131  0.3325527874880052  0.5652212713929217
  0.5352333553834470  0.3246867828151068  0.4776691036681200
  0.5772122978893108  0.0219806533481020  0.5858045971070638
  0.6406954673731562  0.1182061707132860  0.5938213216630501
  0.4323522827508341  0.8575240438564862  0.5938255076792629
  0.5008970831331112  0.9522894128130801  0.6022962457990175
  0.3388943085600857  0.7952012226883980  0.5252242721406759
  0.3484566247257206  0.7977107711387177  0.4379515202752415
  0.9794334819589565  0.5542056766457719  0.5882800507771719
  0.8836628243569322  0.5225574477932469  0.5967376324653699
  0.1419804023581790  0.5704433259693005  0.5951906237106570
  0.0478606819903789  0.5456627469654549  0.6040529586643615
  0.2034740269628301  0.5403665691217938  0.5259735775862637
  0.2003561992417318  0.5462939832273008  0.4385335435334170
  0.4451020943518955  0.4224650916467567  0.5863891666056631
  0.4769865230581871  0.3587149995222205  0.5939442694925461
  0.4263886936273522  0.5670943515975182  0.5954510911694868
  0.4523106906877672  0.4987296556255814  0.6037941815034245
  0.4580074643713488  0.6607468672679033  0.5280514549770530
  0.4525536385456732  0.6523028207855006  0.4405212840672448
  0.3616572294359273  0.7169997309968750  0.4944125276537861
  0.3573064197223559  0.6374773596692904  0.4946951356490104
  0.2820109792933465  0.6413923242244337  0.4940741035603509
  0.6435841748906128  0.2819610524285991  0.5110048636877167
  0.6385488685759171  0.3566811603072324  0.5113077315847718
  0.7185052838669677  0.3621888726868221  0.5119303280161773
  0.4621665183331984  0.9511886444359732  0.4408536753500059
  0.4232927467751608  0.8974397368880958  0.4371367641756407
  0.6064792219424078  0.1390278924426980  0.5118357923574095
  0.5665915684222469  0.1186234373996982  0.4629180100045218
  0.5296546335362038  0.0643981703943481  0.4584843036387412
  0.4859936681040722  0.0429402318104621  0.4068109789386654
  0.4740762208954692  0.9882131643619232  0.3823637141713689
  0.6453935606609704  0.1979013973527941  0.5169251012564118
  0.0481262953327928  0.5095408479471928  0.4416474765968275
  0.1014962294164548  0.5236139468497711  0.4377001634007698
  0.8617415300952089  0.4679434774789968  0.5138670071270823
  0.8813868398519773  0.4484101620450218  0.4642400796871442
  0.9353202652600885  0.4650875552941827  0.4595022228887871
  0.9559097090777513  0.4428024179477035  0.4070211836432733
  0.0109971291160704  0.4854809862762011  0.3829754927295710
  0.8030758639149269  0.4482986465809162  0.5193195981513057
  0.4918862582169936  0.5390061658900436  0.4431483696666874
  0.4771280485314833  0.5777185351415426  0.4394929724300312
  0.5331823804865365  0.3938206965620239  0.5129835685032873
  0.5536468867037954  0.4343307040075146  0.4648398950101225
  0.5368855363806375  0.4714375517457583  0.4607436327626573
  0.5601490250237475  0.5157874917036622  0.4099759922790298
  0.5177290319535075  0.5278619611033264  0.3849383277526073
  0.5526515680315924  0.3547600106445614  0.5177024734354916
  0.4120196068731374  0.8629970690272657  0.4913182070758637
  0.4409785834137523  0.8835652774103053  0.5506292828425359
  0.4799130052313387  0.9369797077962119  0.5550705863566705
  0.4914789572057856  0.9716636915236450  0.5005575989906106
  0.5322714510316331  0.0285842897311568  0.5039995021369208
  0.5733738502182533  0.0489670376089322  0.5515009805793554
  0.6095854715302949  0.1032807030128566  0.5557801607447175
  0.3693101536679464  0.8053437102533820  0.4863061838934257
  0.1359839158793577  0.5457332142116158  0.4920906001210881
  0.1158848716554317  0.5538613531132626  0.5518606924545395
  0.0628634264504271  0.5402073412471537  0.5565309314887870
  0.0281414068287376  0.5181818422846618  0.5017985136058414
  0.9716109090666762  0.5029075110308270  0.5054739262844947
  0.9520303206261005  0.5237810458455883  0.5536391679738273
  0.8979862086492645  0.5063058065841659  0.5581801808371267
  0.1933207613111279  0.5602631195566445  0.4866560273335523
  0.4533474124331107  0.5883366223643094  0.4934190584524174
  0.4442430075595851  0.5589254404177595  0.5524368339242400
  0.4585601376149810  0.5201127426611123  0.5568042170785645
  0.4822227194653408  0.5091493233274278  0.5025042687918386
  0.4979576592705541  0.4683240240419053  0.5057501281007788
  0.4762879079257942  0.4266416563934428  0.5524799916771528
  0.4939036446780207  0.3902825953157034  0.5564888888654522
  0.4384272944906229  0.6307781319438703  0.4883658147784189
 
  0.00000000E+00  0.00000000E+00  0.00000000E+00
  0.00000000E+00  0.00000000E+00  0.00000000E+00
  0.00000000E+00  0.00000000E+00  0.00000000E+00
  0.00000000E+00  0.00000000E+00  0.00000000E+00
  0.00000000E+00  0.00000000E+00  0.00000000E+00
  0.00000000E+00  0.00000000E+00  0.00000000E+00
  0.00000000E+00  0.00000000E+00  0.00000000E+00
  0.00000000E+00  0.00000000E+00  0.00000000E+00
  0.00000000E+00  0.00000000E+00  0.00000000E+00
  0.00000000E+00  0.00000000E+00  0.00000000E+00
  0.00000000E+00  0.00000000E+00  0.00000000E+00
  0.00000000E+00  0.00000000E+00  0.00000000E+00
  0.00000000E+00  0.00000000E+00  0.00000000E+00
  0.00000000E+00  0.00000000E+00  0.00000000E+00
  0.00000000E+00  0.00000000E+00  0.00000000E+00
  0.00000000E+00  0.00000000E+00  0.00000000E+00
  0.00000000E+00  0.00000000E+00  0.00000000E+00
  0.00000000E+00  0.00000000E+00  0.00000000E+00
  0.00000000E+00  0.00000000E+00  0.00000000E+00
  0.00000000E+00  0.00000000E+00  0.00000000E+00
  0.00000000E+00  0.00000000E+00  0.00000000E+00
  0.00000000E+00  0.00000000E+00  0.00000000E+00
  0.00000000E+00  0.00000000E+00  0.00000000E+00
  0.00000000E+00  0.00000000E+00  0.00000000E+00
  0.00000000E+00  0.00000000E+00  0.00000000E+00
  0.00000000E+00  0.00000000E+00  0.00000000E+00
  0.00000000E+00  0.00000000E+00  0.00000000E+00
  0.00000000E+00  0.00000000E+00  0.00000000E+00
  0.00000000E+00  0.00000000E+00  0.00000000E+00
  0.00000000E+00  0.00000000E+00  0.00000000E+00
  0.00000000E+00  0.00000000E+00  0.00000000E+00
  0.00000000E+00  0.00000000E+00  0.00000000E+00
  0.00000000E+00  0.00000000E+00  0.00000000E+00
  0.00000000E+00  0.00000000E+00  0.00000000E+00
  0.00000000E+00  0.00000000E+00  0.00000000E+00
  0.00000000E+00  0.00000000E+00  0.00000000E+00
  0.00000000E+00  0.00000000E+00  0.00000000E+00
  0.00000000E+00  0.00000000E+00  0.00000000E+00
  0.00000000E+00  0.00000000E+00  0.00000000E+00
  0.00000000E+00  0.00000000E+00  0.00000000E+00
  0.00000000E+00  0.00000000E+00  0.00000000E+00
  0.00000000E+00  0.00000000E+00  0.00000000E+00
  0.00000000E+00  0.00000000E+00  0.00000000E+00
  0.00000000E+00  0.00000000E+00  0.00000000E+00
  0.00000000E+00  0.00000000E+00  0.00000000E+00
  0.00000000E+00  0.00000000E+00  0.00000000E+00
  0.00000000E+00  0.00000000E+00  0.00000000E+00
  0.00000000E+00  0.00000000E+00  0.00000000E+00
  0.00000000E+00  0.00000000E+00  0.00000000E+00
  0.00000000E+00  0.00000000E+00  0.00000000E+00
  0.00000000E+00  0.00000000E+00  0.00000000E+00
  0.00000000E+00  0.00000000E+00  0.00000000E+00
  0.00000000E+00  0.00000000E+00  0.00000000E+00
  0.00000000E+00  0.00000000E+00  0.00000000E+00
  0.00000000E+00  0.00000000E+00  0.00000000E+00
  0.00000000E+00  0.00000000E+00  0.00000000E+00
  0.00000000E+00  0.00000000E+00  0.00000000E+00
  0.00000000E+00  0.00000000E+00  0.00000000E+00
  0.00000000E+00  0.00000000E+00  0.00000000E+00
  0.00000000E+00  0.00000000E+00  0.00000000E+00
  0.00000000E+00  0.00000000E+00  0.00000000E+00
  0.00000000E+00  0.00000000E+00  0.00000000E+00
  0.00000000E+00  0.00000000E+00  0.00000000E+00
  0.00000000E+00  0.00000000E+00  0.00000000E+00
  0.00000000E+00  0.00000000E+00  0.00000000E+00
  0.00000000E+00  0.00000000E+00  0.00000000E+00
  0.00000000E+00  0.00000000E+00  0.00000000E+00
  0.00000000E+00  0.00000000E+00  0.00000000E+00
  0.00000000E+00  0.00000000E+00  0.00000000E+00
  0.00000000E+00  0.00000000E+00  0.00000000E+00
  0.00000000E+00  0.00000000E+00  0.00000000E+00
  0.00000000E+00  0.00000000E+00  0.00000000E+00
  0.00000000E+00  0.00000000E+00  0.00000000E+00
  0.00000000E+00  0.00000000E+00  0.00000000E+00
  0.00000000E+00  0.00000000E+00  0.00000000E+00
  0.00000000E+00  0.00000000E+00  0.00000000E+00
  0.00000000E+00  0.00000000E+00  0.00000000E+00
  0.00000000E+00  0.00000000E+00  0.00000000E+00
  0.00000000E+00  0.00000000E+00  0.00000000E+00
  0.00000000E+00  0.00000000E+00  0.00000000E+00
  0.00000000E+00  0.00000000E+00  0.00000000E+00
  0.00000000E+00  0.00000000E+00  0.00000000E+00
  0.00000000E+00  0.00000000E+00  0.00000000E+00
  0.00000000E+00  0.00000000E+00  0.00000000E+00
  0.00000000E+00  0.00000000E+00  0.00000000E+00
  0.00000000E+00  0.00000000E+00  0.00000000E+00
  0.00000000E+00  0.00000000E+00  0.00000000E+00
  0.00000000E+00  0.00000000E+00  0.00000000E+00
  0.00000000E+00  0.00000000E+00  0.00000000E+00
  0.00000000E+00  0.00000000E+00  0.00000000E+00
  0.00000000E+00  0.00000000E+00  0.00000000E+00
  0.00000000E+00  0.00000000E+00  0.00000000E+00
  0.00000000E+00  0.00000000E+00  0.00000000E+00
  0.00000000E+00  0.00000000E+00  0.00000000E+00
  0.00000000E+00  0.00000000E+00  0.00000000E+00
  0.00000000E+00  0.00000000E+00  0.00000000E+00
  0.00000000E+00  0.00000000E+00  0.00000000E+00
  0.00000000E+00  0.00000000E+00  0.00000000E+00
  0.00000000E+00  0.00000000E+00  0.00000000E+00
  0.00000000E+00  0.00000000E+00  0.00000000E+00
  0.00000000E+00  0.00000000E+00  0.00000000E+00
  0.00000000E+00  0.00000000E+00  0.00000000E+00
  0.00000000E+00  0.00000000E+00  0.00000000E+00
  0.00000000E+00  0.00000000E+00  0.00000000E+00
  0.00000000E+00  0.00000000E+00  0.00000000E+00
  0.00000000E+00  0.00000000E+00  0.00000000E+00
  0.00000000E+00  0.00000000E+00  0.00000000E+00
  0.00000000E+00  0.00000000E+00  0.00000000E+00
  0.00000000E+00  0.00000000E+00  0.00000000E+00
  0.00000000E+00  0.00000000E+00  0.00000000E+00
  0.00000000E+00  0.00000000E+00  0.00000000E+00
  0.00000000E+00  0.00000000E+00  0.00000000E+00
  0.00000000E+00  0.00000000E+00  0.00000000E+00
  0.00000000E+00  0.00000000E+00  0.00000000E+00
