Primitive Cell                          
   1.00000000000000     
    14.5052160618442869    0.0779871724600103    0.0000000000000000
    -7.1931955934415894   12.1290426483996487    0.0000000000000000
     0.0000000000000000    0.0000000000000000   20.0000000000000107
   N    O    H    C 
    12     3     6    21
Direct
  0.5933222336035726  0.0486240795643766  0.4988245547854859
  0.5453827999091772  0.2714524268249505  0.5330967443564276
  0.7096886128787503  0.2734145521225031  0.5240943980048343
  0.7100424542485868  0.4421144035247693  0.5368968978931719
  0.4235642451410158  0.7063404232235087  0.5364475787946148
  0.2624991667908816  0.7058142833814642  0.5160162627646940
  0.2570899327513700  0.5380981979751880  0.5423431752992798
  0.9319816467580750  0.5524253059896225  0.5295757433872907
  0.5923127866791091  0.5450508317067104  0.5620810583532361
  0.0375679939640676  0.4317698656859363  0.5304750977179253
  0.3726936110949524  0.4308058453102177  0.5341763102187045
  0.3777008433252504  0.9303527614608740  0.5343685183817115
  0.0746969633355192  0.7806870863644164  0.4952241409087890
  0.6812675922512952  0.7809292441431879  0.5726949080504298
  0.5494153262733619  0.8133613889045037  0.4184465933313675
  0.3878289932661261  0.0815730961213887  0.5461013270548989
  0.1522623535156526  0.7669688778422525  0.5764340845946805
  0.5495546845190731  0.7294407663804776  0.6316142700111342
  0.6830828369969311  0.9377387876343874  0.4633457900618936
  0.8865735827434236  0.2923357115171115  0.5316093217934466
  0.3870003947863552  0.2926460259570618  0.5230060494703466
  0.5417076147102833  0.0998613021127142  0.5192601464942612
  0.4316163555007293  0.0398348006014331  0.5336848292637910
  0.6029851144519398  0.2217368248939806  0.5258354224871411
  0.6031489760679634  0.3817559736277971  0.5380365764961610
  0.7591524716884592  0.3835670069007193  0.5300733087749308
  0.3641220180360065  0.5964962278942494  0.5426859403749660
  0.3689254225776608  0.7571202864867175  0.5223192435059403
  0.2103440589236882  0.5974601664629589  0.5295311947460917
  0.0920268124931241  0.5421343075618950  0.5307062439677708
  0.8781057121342997  0.4423538941468834  0.5298232807589613
  0.0387576080931495  0.6032484844297841  0.5309799809652844
  0.0951532768103718  0.7277550947609157  0.5343018266015562
  0.4247089349790656  0.5381461708283126  0.5493106783841810
  0.5406506161712699  0.4386358796322511  0.5449516857783010
  0.5347919099969118  0.5948317330278741  0.5662008745347578
  0.5925652442471048  0.7118349927699370  0.5916858256479074
  0.4295993560597466  0.8786552762671462  0.5152620367678935
  0.5371593638880157  0.9391611835425948  0.4931332491408966
  0.5948988107530155  0.8915036876178561  0.4562150640822011
  0.9315126436720575  0.3819899466380221  0.5308033443678610
  0.4293891239125642  0.3805542981610515  0.5336305753947599
 
  0.00000000E+00  0.00000000E+00  0.00000000E+00
  0.00000000E+00  0.00000000E+00  0.00000000E+00
  0.00000000E+00  0.00000000E+00  0.00000000E+00
  0.00000000E+00  0.00000000E+00  0.00000000E+00
  0.00000000E+00  0.00000000E+00  0.00000000E+00
  0.00000000E+00  0.00000000E+00  0.00000000E+00
  0.00000000E+00  0.00000000E+00  0.00000000E+00
  0.00000000E+00  0.00000000E+00  0.00000000E+00
  0.00000000E+00  0.00000000E+00  0.00000000E+00
  0.00000000E+00  0.00000000E+00  0.00000000E+00
  0.00000000E+00  0.00000000E+00  0.00000000E+00
  0.00000000E+00  0.00000000E+00  0.00000000E+00
  0.00000000E+00  0.00000000E+00  0.00000000E+00
  0.00000000E+00  0.00000000E+00  0.00000000E+00
  0.00000000E+00  0.00000000E+00  0.00000000E+00
  0.00000000E+00  0.00000000E+00  0.00000000E+00
  0.00000000E+00  0.00000000E+00  0.00000000E+00
  0.00000000E+00  0.00000000E+00  0.00000000E+00
  0.00000000E+00  0.00000000E+00  0.00000000E+00
  0.00000000E+00  0.00000000E+00  0.00000000E+00
  0.00000000E+00  0.00000000E+00  0.00000000E+00
  0.00000000E+00  0.00000000E+00  0.00000000E+00
  0.00000000E+00  0.00000000E+00  0.00000000E+00
  0.00000000E+00  0.00000000E+00  0.00000000E+00
  0.00000000E+00  0.00000000E+00  0.00000000E+00
  0.00000000E+00  0.00000000E+00  0.00000000E+00
  0.00000000E+00  0.00000000E+00  0.00000000E+00
  0.00000000E+00  0.00000000E+00  0.00000000E+00
  0.00000000E+00  0.00000000E+00  0.00000000E+00
  0.00000000E+00  0.00000000E+00  0.00000000E+00
  0.00000000E+00  0.00000000E+00  0.00000000E+00
  0.00000000E+00  0.00000000E+00  0.00000000E+00
  0.00000000E+00  0.00000000E+00  0.00000000E+00
  0.00000000E+00  0.00000000E+00  0.00000000E+00
  0.00000000E+00  0.00000000E+00  0.00000000E+00
  0.00000000E+00  0.00000000E+00  0.00000000E+00
  0.00000000E+00  0.00000000E+00  0.00000000E+00
  0.00000000E+00  0.00000000E+00  0.00000000E+00
  0.00000000E+00  0.00000000E+00  0.00000000E+00
  0.00000000E+00  0.00000000E+00  0.00000000E+00
  0.00000000E+00  0.00000000E+00  0.00000000E+00
  0.00000000E+00  0.00000000E+00  0.00000000E+00
