Primitive Cell                          
   1.00000000000000     
    21.1045529826792588    0.0161546822425654    0.0000000000000000
   -10.5340255843191724   18.2508351291740460    0.0000000000000000
     0.0000000000000000    0.0000000000000000   20.0000000000000000
   N    H    C 
    30    18    36
Direct
  0.9577404496782265  0.9155458485548849  0.5679235727783407
  0.0778284040885779  0.0193397472387815  0.5688789963703869
  0.1351997018246820  0.9272564706655544  0.5671411607488821
  0.2373219502675639  0.8278193536104581  0.4928632819633307
  0.1643338542402475  0.8868310371139643  0.5514896720770963
  0.0025051388343371  0.7074622152930488  0.5169088318281538
  0.1291645867090594  0.7105900439612043  0.4901984629319429
  0.2365045371990959  0.7288389891225577  0.4342959512772353
  0.3773344531304872  0.9171338670949041  0.5461879650698762
  0.9741249339204430  0.0358575864538651  0.5693184198616592
  0.5980467328955825  0.8649191225090149  0.4925222618415290
  0.6073633674357595  0.7566772218352043  0.4940532054963001
  0.5090717141198411  0.7577028638916730  0.4362350307753999
  0.2834447199008423  0.3955610170478252  0.4918143825484549
  0.1661849423978268  0.3864971664654320  0.4924115860492293
  0.2658296692867097  0.4847600247639576  0.4349095455961702
  0.7389421934188931  0.8292814191628892  0.5528261918110005
  0.8084461790932380  0.8583248666153480  0.5681952339404930
  0.1066767112785811  0.2548592727554677  0.5515379865703380
  0.0661451386161360  0.1853469121425135  0.5672650090101072
  0.5562008295447285  0.6159917730492523  0.5469135705487105
  0.0760960068213734  0.4373560258389588  0.5442715994338698
  0.7211875336765914  0.9916103878935445  0.5202545190409822
  0.2865172338939033  0.2721244710652968  0.5205734816423799
  0.3750160765559230  0.8189757547500136  0.3948234213496846
  0.4408288888483938  0.8277968212896951  0.3930594730781962
  0.4613526083011905  0.6193315701919033  0.3953498446470007
  0.4043975408691196  0.5534777056179934  0.3932350936387010
  0.1757502859280038  0.5330120823305720  0.3935388766243122
  0.1669621817718578  0.5901347608440517  0.3913634095980711
  0.9558037931005927  0.8026853589012006  0.5442205411800174
  0.3085358288806077  0.2391693819859597  0.5173591051472854
  0.1908939002879393  0.1301331027662798  0.5469745135531099
  0.9476609243302292  0.6854799240917586  0.5131985127718650
  0.0282815938343788  0.6794133669689089  0.5025330579702896
  0.4106465394885390  0.9450995672981506  0.5847442257158519
  0.3248367243372527  0.9076223154594132  0.5448267329320586
  0.0837228414426860  0.5708896938699866  0.5415207828237669
  0.5033424625363239  0.9100080682852294  0.5439069429775074
  0.5503858216024611  0.5827953701434154  0.5857627818292741
  0.5990807353875596  0.6685982772918706  0.5458134859913173
  0.4228556792079416  0.4900307404539532  0.5441092977672000
  0.0480281438123740  0.4429403842469739  0.5826210384280586
  0.0856679792142643  0.3943139667572169  0.5433359692594522
  0.7541123337843274  0.0464750957319211  0.5160403381312904
  0.6674678871346131  0.9658066555372145  0.5057601143190098
  0.8633500566178753  0.0380829982277717  0.5455780283522103
  0.3146595855406176  0.3258894663568128  0.5060424667323673
  0.0310953201791193  0.9470751412580967  0.5680656182573216
  0.0612996025568222  0.8969009046222567  0.5611618368994087
  0.0147000905718855  0.8238743910803308  0.5460195739547018
  0.1651716972478354  0.7832209446474963  0.5040256847118982
  0.0450963090260714  0.7793259317847117  0.5311348217937777
  0.1233987253451048  0.8165366579424642  0.5308493454306031
  0.1683576255364514  0.6864799298738262  0.4561893728309627
  0.2701138152903511  0.7981531676476550  0.4574739217980834
  0.3980454282636714  0.8840233717767063  0.5001438212063078
  0.3500235271903733  0.8379767464728829  0.4491308468930555
  0.1419610392163477  0.6070516235484078  0.4478961329560960
  0.0463148066090966  0.0612924949148947  0.5688598048361229
  0.9322931191485324  0.9624101524569966  0.5684917326523333
  0.5349512868202737  0.8259084564556289  0.4583480692968536
  0.6346661503835236  0.8287806678209435  0.5058666789993183
  0.5448740502752827  0.7239776350698719  0.4588175125491034
  0.3078820161995068  0.4588407358775655  0.4576449679714187
  0.2107160710601761  0.3590173668490664  0.5047350657101433
  0.1962408041430024  0.4490280976670462  0.4571316453586292
  0.4821541711504693  0.8524702763639382  0.4499282621292835
  0.4665611682993429  0.8868399348786724  0.5011900214456304
  0.3872483638743063  0.5117866566583942  0.4499488713817854
  0.4367690007803802  0.5270822751196107  0.5015127521582130
  0.5025330896682263  0.5955836492259934  0.5008086659364466
  0.5049031455483046  0.6440002676914531  0.4499396737251189
  0.1071927099123187  0.5571435960015947  0.4990929981933050
  0.1098669128194629  0.4912530392461392  0.4984041482811250
  0.1563877856215896  0.4891225612366270  0.4479484628389585
  0.8519990264257657  0.9323282036150431  0.5621398480406015
  0.8256090154623621  0.9791275420041714  0.5474984973231614
  0.7506232970086941  0.9488673733542541  0.5333994159947935
  0.7096096522826372  0.8704497281327193  0.5327426262934623
  0.0965404329913824  0.1416624995065874  0.5622096009188553
  0.1697083624716242  0.1679434892853280  0.5481127367707046
  0.2144336961263562  0.2428822414971563  0.5334441072150256
  0.1771882894055778  0.2840471148715480  0.5318923336376216
 
  0.00000000E+00  0.00000000E+00  0.00000000E+00
  0.00000000E+00  0.00000000E+00  0.00000000E+00
  0.00000000E+00  0.00000000E+00  0.00000000E+00
  0.00000000E+00  0.00000000E+00  0.00000000E+00
  0.00000000E+00  0.00000000E+00  0.00000000E+00
  0.00000000E+00  0.00000000E+00  0.00000000E+00
  0.00000000E+00  0.00000000E+00  0.00000000E+00
  0.00000000E+00  0.00000000E+00  0.00000000E+00
  0.00000000E+00  0.00000000E+00  0.00000000E+00
  0.00000000E+00  0.00000000E+00  0.00000000E+00
  0.00000000E+00  0.00000000E+00  0.00000000E+00
  0.00000000E+00  0.00000000E+00  0.00000000E+00
  0.00000000E+00  0.00000000E+00  0.00000000E+00
  0.00000000E+00  0.00000000E+00  0.00000000E+00
  0.00000000E+00  0.00000000E+00  0.00000000E+00
  0.00000000E+00  0.00000000E+00  0.00000000E+00
  0.00000000E+00  0.00000000E+00  0.00000000E+00
  0.00000000E+00  0.00000000E+00  0.00000000E+00
  0.00000000E+00  0.00000000E+00  0.00000000E+00
  0.00000000E+00  0.00000000E+00  0.00000000E+00
  0.00000000E+00  0.00000000E+00  0.00000000E+00
  0.00000000E+00  0.00000000E+00  0.00000000E+00
  0.00000000E+00  0.00000000E+00  0.00000000E+00
  0.00000000E+00  0.00000000E+00  0.00000000E+00
  0.00000000E+00  0.00000000E+00  0.00000000E+00
  0.00000000E+00  0.00000000E+00  0.00000000E+00
  0.00000000E+00  0.00000000E+00  0.00000000E+00
  0.00000000E+00  0.00000000E+00  0.00000000E+00
  0.00000000E+00  0.00000000E+00  0.00000000E+00
  0.00000000E+00  0.00000000E+00  0.00000000E+00
  0.00000000E+00  0.00000000E+00  0.00000000E+00
  0.00000000E+00  0.00000000E+00  0.00000000E+00
  0.00000000E+00  0.00000000E+00  0.00000000E+00
  0.00000000E+00  0.00000000E+00  0.00000000E+00
  0.00000000E+00  0.00000000E+00  0.00000000E+00
  0.00000000E+00  0.00000000E+00  0.00000000E+00
  0.00000000E+00  0.00000000E+00  0.00000000E+00
  0.00000000E+00  0.00000000E+00  0.00000000E+00
  0.00000000E+00  0.00000000E+00  0.00000000E+00
  0.00000000E+00  0.00000000E+00  0.00000000E+00
  0.00000000E+00  0.00000000E+00  0.00000000E+00
  0.00000000E+00  0.00000000E+00  0.00000000E+00
  0.00000000E+00  0.00000000E+00  0.00000000E+00
  0.00000000E+00  0.00000000E+00  0.00000000E+00
  0.00000000E+00  0.00000000E+00  0.00000000E+00
  0.00000000E+00  0.00000000E+00  0.00000000E+00
  0.00000000E+00  0.00000000E+00  0.00000000E+00
  0.00000000E+00  0.00000000E+00  0.00000000E+00
  0.00000000E+00  0.00000000E+00  0.00000000E+00
  0.00000000E+00  0.00000000E+00  0.00000000E+00
  0.00000000E+00  0.00000000E+00  0.00000000E+00
  0.00000000E+00  0.00000000E+00  0.00000000E+00
  0.00000000E+00  0.00000000E+00  0.00000000E+00
  0.00000000E+00  0.00000000E+00  0.00000000E+00
  0.00000000E+00  0.00000000E+00  0.00000000E+00
  0.00000000E+00  0.00000000E+00  0.00000000E+00
  0.00000000E+00  0.00000000E+00  0.00000000E+00
  0.00000000E+00  0.00000000E+00  0.00000000E+00
  0.00000000E+00  0.00000000E+00  0.00000000E+00
  0.00000000E+00  0.00000000E+00  0.00000000E+00
  0.00000000E+00  0.00000000E+00  0.00000000E+00
  0.00000000E+00  0.00000000E+00  0.00000000E+00
  0.00000000E+00  0.00000000E+00  0.00000000E+00
  0.00000000E+00  0.00000000E+00  0.00000000E+00
  0.00000000E+00  0.00000000E+00  0.00000000E+00
  0.00000000E+00  0.00000000E+00  0.00000000E+00
  0.00000000E+00  0.00000000E+00  0.00000000E+00
  0.00000000E+00  0.00000000E+00  0.00000000E+00
  0.00000000E+00  0.00000000E+00  0.00000000E+00
  0.00000000E+00  0.00000000E+00  0.00000000E+00
  0.00000000E+00  0.00000000E+00  0.00000000E+00
  0.00000000E+00  0.00000000E+00  0.00000000E+00
  0.00000000E+00  0.00000000E+00  0.00000000E+00
  0.00000000E+00  0.00000000E+00  0.00000000E+00
  0.00000000E+00  0.00000000E+00  0.00000000E+00
  0.00000000E+00  0.00000000E+00  0.00000000E+00
  0.00000000E+00  0.00000000E+00  0.00000000E+00
  0.00000000E+00  0.00000000E+00  0.00000000E+00
  0.00000000E+00  0.00000000E+00  0.00000000E+00
  0.00000000E+00  0.00000000E+00  0.00000000E+00
  0.00000000E+00  0.00000000E+00  0.00000000E+00
  0.00000000E+00  0.00000000E+00  0.00000000E+00
  0.00000000E+00  0.00000000E+00  0.00000000E+00
  0.00000000E+00  0.00000000E+00  0.00000000E+00
