Primitive Cell                          
   1.00000000000000     
    14.6877114798468646    0.0020523501194338    0.0000000000000000
    -7.3420783188613132   12.7157639960830195    0.0000000000000000
     0.0000000000000000    0.0000000000000000   20.0000000000000107
   N    H    C 
     6    18    27
Direct
  0.0826118207927564  0.5455699541606478  0.4528082131704636
  0.4975539674006839  0.5455029985197299  0.4528592776944507
  0.4977603567374231  0.9606338910191994  0.4527144631768536
  0.5545081747090990  0.4892607527458779  0.5729859233774164
  0.5543239802319917  0.0738998898272598  0.5728209873481021
  0.9693991773381612  0.4890311448386839  0.5729125091094716
  0.2614020406809345  0.4882995288452889  0.5115075590062617
  0.2614792470906053  0.7817689983364318  0.5114347115027869
  0.0702117101590289  0.5395969602831485  0.6797358624918672
  0.1801350061223062  0.6545512458050169  0.6453694279704223
  0.1801348464746368  0.5345027852342810  0.6454261401464123
  0.3889944299259298  0.5345596460760760  0.6453862508826020
  0.3888285868554036  0.8631267208201834  0.6452790042382759
  0.4971140174955480  0.2529077452542978  0.5136790987487529
  0.5039462463704965  0.5396286374658388  0.6797902847714994
  0.5089981918028244  0.6546190870136357  0.6454193248310034
  0.5037465961113909  0.9730592464478534  0.6796607923786269
  0.5088502469185059  0.8631310704178645  0.6453352902488945
  0.5547766442815174  0.7816590724844801  0.5113687490604377
  0.7905084024475286  0.5462970371947407  0.5137253430561088
  0.7904212591909925  0.2527934134903163  0.5136059021440644
  0.5700987456297497  0.4727613062804181  0.4053161462016277
  0.5704107488344405  0.1059150384034027  0.4051287573346585
  0.9373782920325695  0.4728845713705212  0.4052274724493756
  0.2489582547230640  0.6287888808813378  0.5117060909111402
  0.0749594150295749  0.5418342752564200  0.5730135329854775
  0.1317439914839724  0.5701844354389394  0.5121248117730133
  0.1291149856321212  0.5690077526599424  0.6397871198333931
  0.3043785256923499  0.7388285071042660  0.5118009307144646
  0.4143878066665465  0.7942362762086788  0.5116432679475196
  0.4689503881185360  0.7387710614954912  0.5117792621183810
  0.4143546279567900  0.6287342849514275  0.5117179920943755
  0.3043473273617252  0.5741462230394347  0.5118625807932915
  0.4730489739956951  0.5701776597444308  0.5121676393160186
  0.4745152111081055  0.5690816733052415  0.6398202688127057
  0.4730770532969757  0.9115004209623407  0.5120423592485679
  0.4743448185379435  0.9141553295061584  0.6397042988828758
  0.5016071917376195  0.5419560990482921  0.5730643909239603
  0.5014691054010143  0.9683128616295988  0.5729299076731422
  0.8029511734489603  0.4057868821949313  0.5132986654455749
  0.7475487438183350  0.2957353538839129  0.5131411348857000
  0.6375291560568428  0.2403739922049084  0.5132342177723288
  0.5829064646594304  0.2957941272488043  0.5131937135473521
  0.6375741087424842  0.4058478966605321  0.5133588758836822
  0.7475955927130826  0.4604773037109666  0.5132269461512564
  0.5789976734745821  0.4644523194859289  0.5135156986275575
  0.5502086741892356  0.4929171171675080  0.4536829554718977
  0.5789565088538637  0.1231871441013368  0.5133422604448086
  0.5503754013064892  0.0659012045132457  0.4535141944515075
  0.9201146343344888  0.4643342965477188  0.5134347336703513
  0.9773784560256402  0.4929278787130258  0.4536086521792342
 
  0.00000000E+00  0.00000000E+00  0.00000000E+00
  0.00000000E+00  0.00000000E+00  0.00000000E+00
  0.00000000E+00  0.00000000E+00  0.00000000E+00
  0.00000000E+00  0.00000000E+00  0.00000000E+00
  0.00000000E+00  0.00000000E+00  0.00000000E+00
  0.00000000E+00  0.00000000E+00  0.00000000E+00
  0.00000000E+00  0.00000000E+00  0.00000000E+00
  0.00000000E+00  0.00000000E+00  0.00000000E+00
  0.00000000E+00  0.00000000E+00  0.00000000E+00
  0.00000000E+00  0.00000000E+00  0.00000000E+00
  0.00000000E+00  0.00000000E+00  0.00000000E+00
  0.00000000E+00  0.00000000E+00  0.00000000E+00
  0.00000000E+00  0.00000000E+00  0.00000000E+00
  0.00000000E+00  0.00000000E+00  0.00000000E+00
  0.00000000E+00  0.00000000E+00  0.00000000E+00
  0.00000000E+00  0.00000000E+00  0.00000000E+00
  0.00000000E+00  0.00000000E+00  0.00000000E+00
  0.00000000E+00  0.00000000E+00  0.00000000E+00
  0.00000000E+00  0.00000000E+00  0.00000000E+00
  0.00000000E+00  0.00000000E+00  0.00000000E+00
  0.00000000E+00  0.00000000E+00  0.00000000E+00
  0.00000000E+00  0.00000000E+00  0.00000000E+00
  0.00000000E+00  0.00000000E+00  0.00000000E+00
  0.00000000E+00  0.00000000E+00  0.00000000E+00
  0.00000000E+00  0.00000000E+00  0.00000000E+00
  0.00000000E+00  0.00000000E+00  0.00000000E+00
  0.00000000E+00  0.00000000E+00  0.00000000E+00
  0.00000000E+00  0.00000000E+00  0.00000000E+00
  0.00000000E+00  0.00000000E+00  0.00000000E+00
  0.00000000E+00  0.00000000E+00  0.00000000E+00
  0.00000000E+00  0.00000000E+00  0.00000000E+00
  0.00000000E+00  0.00000000E+00  0.00000000E+00
  0.00000000E+00  0.00000000E+00  0.00000000E+00
  0.00000000E+00  0.00000000E+00  0.00000000E+00
  0.00000000E+00  0.00000000E+00  0.00000000E+00
  0.00000000E+00  0.00000000E+00  0.00000000E+00
  0.00000000E+00  0.00000000E+00  0.00000000E+00
  0.00000000E+00  0.00000000E+00  0.00000000E+00
  0.00000000E+00  0.00000000E+00  0.00000000E+00
  0.00000000E+00  0.00000000E+00  0.00000000E+00
  0.00000000E+00  0.00000000E+00  0.00000000E+00
  0.00000000E+00  0.00000000E+00  0.00000000E+00
  0.00000000E+00  0.00000000E+00  0.00000000E+00
  0.00000000E+00  0.00000000E+00  0.00000000E+00
  0.00000000E+00  0.00000000E+00  0.00000000E+00
  0.00000000E+00  0.00000000E+00  0.00000000E+00
  0.00000000E+00  0.00000000E+00  0.00000000E+00
  0.00000000E+00  0.00000000E+00  0.00000000E+00
  0.00000000E+00  0.00000000E+00  0.00000000E+00
  0.00000000E+00  0.00000000E+00  0.00000000E+00
  0.00000000E+00  0.00000000E+00  0.00000000E+00
